#------------------------------------------------------------------------------
#$Date: 2019-12-14 03:15:32 +0200 (Sat, 14 Dec 2019) $
#$Revision: 245171 $
#$URL: file:///home/coder/svn-repositories/cod/cif/4/03/76/4037662.cif $
#------------------------------------------------------------------------------
#
# This file is available in the Crystallography Open Database (COD),
# http://www.crystallography.net/
#
# All data on this site have been placed in the public domain by the
# contributors.
#
data_4037662
loop_
_publ_author_name
'Brunner, Henri'
'Tsuno, Takashi'
'Bal\'azs, G\'abor'
_publ_section_title
;
 Chiral Selectivity in the Achiral Amino Acid Glycine.
;
_journal_name_full               'The Journal of organic chemistry'
_journal_paper_doi               10.1021/acs.joc.9b02726
_journal_year                    2019
_chemical_formula_moiety         'C2 H5 N O2'
_chemical_formula_sum            'C2 H5 N O2'
_chemical_formula_weight         75.07
_chemical_name_systematic        'gamma glycine'
_space_group_crystal_system      trigonal
_space_group_IT_number           144
_space_group_name_Hall           'P 31'
_space_group_name_H-M_alt        'P 31'
_atom_sites_solution_hydrogens   geom
_atom_sites_solution_primary     dual
_audit_creation_date             2019-05-14
_audit_creation_method
;
Olex2 1.2
(compiled 2018.05.29 svn.r3508 for OlexSys, GUI svn.r5506)
;
_cell_angle_alpha                90
_cell_angle_beta                 90
_cell_angle_gamma                120
_cell_formula_units_Z            3
_cell_length_a                   7.0167(5)
_cell_length_b                   7.0167(5)
_cell_length_c                   5.4894(3)
_cell_measurement_reflns_used    620
_cell_measurement_temperature    173
_cell_measurement_theta_max      29.6680
_cell_measurement_theta_min      3.3400
_cell_volume                     234.06(3)
_computing_cell_refinement       'CrysAlisPro 1.171.39.46e (Rigaku OD, 2018)'
_computing_data_collection       'CrysAlisPro 1.171.39.46e (Rigaku OD, 2018)'
_computing_data_reduction        'CrysAlisPro 1.171.39.46e (Rigaku OD, 2018)'
_computing_molecular_graphics    'Olex2 (Dolomanov et al., 2009)'
_computing_publication_material  'Olex2 (Dolomanov et al., 2009)'
_computing_structure_refinement  'ShelXL (Sheldrick, 2015)'
_computing_structure_solution    'ShelXT (Sheldrick, 2015)'
_diffrn_ambient_temperature      173
_diffrn_detector                 'Rigaku HyPix-3000 area detector'
_diffrn_detector_area_resol_mean 10.0
_diffrn_detector_type            'HPC area detector'
_diffrn_measured_fraction_theta_full 1.000
_diffrn_measured_fraction_theta_max 0.964
_diffrn_measurement_details
;
List of Runs (angles in degrees, time in seconds):

  # Type    Start    End  Width  t~exp~   \w     \q     \k     \f   Frames
--------------------------------------------------------------------------
  1  \w    -38.00 107.00   0.50    7.65    --   20.00  54.00 -60.00  290
  2  \w    -74.00 -48.00   0.50    7.65    --   20.00  54.00-150.00   52
  3  \w     -9.00  17.00   0.50    7.65    --   20.00  54.00-150.00   52
  4  \w      8.00  33.00   0.50    7.65    --   20.00  54.00-120.00   50
  5  \w    -71.00 -42.00   0.50    7.65    --   20.00  54.00 -60.00   58
;
_diffrn_measurement_device       'two-circle diffractometer'
_diffrn_measurement_device_type  'XtaLAB Mini II (JP)'
_diffrn_measurement_method       '\w scans'
_diffrn_orient_matrix_type
'CrysAlisPro convention (1999,Acta A55,543-557)'
_diffrn_orient_matrix_UB_11      0.0947741000
_diffrn_orient_matrix_UB_12      -0.0116737000
_diffrn_orient_matrix_UB_13      -0.0020452000
_diffrn_orient_matrix_UB_21      0.0314842000
_diffrn_orient_matrix_UB_22      0.0561989000
_diffrn_orient_matrix_UB_23      -0.1131802000
_diffrn_orient_matrix_UB_31      0.0603929000
_diffrn_orient_matrix_UB_32      0.1015327000
_diffrn_orient_matrix_UB_33      0.0624077000
_diffrn_radiation_collimation    0.3
_diffrn_radiation_monochromator  'curved graphite'
_diffrn_radiation_probe          x-ray
_diffrn_radiation_type           MoK\a
_diffrn_radiation_wavelength     0.71073
_diffrn_reflns_av_R_equivalents  0.0184
_diffrn_reflns_av_unetI/netI     0.0345
_diffrn_reflns_Laue_measured_fraction_full 1.000
_diffrn_reflns_Laue_measured_fraction_max 0.964
_diffrn_reflns_limit_h_max       9
_diffrn_reflns_limit_h_min       -8
_diffrn_reflns_limit_k_max       9
_diffrn_reflns_limit_k_min       -9
_diffrn_reflns_limit_l_max       3
_diffrn_reflns_limit_l_min       -7
_diffrn_reflns_number            1041
_diffrn_reflns_point_group_measured_fraction_full 0.677
_diffrn_reflns_point_group_measured_fraction_max 0.601
_diffrn_reflns_theta_full        25.000
_diffrn_reflns_theta_max         30.254
_diffrn_reflns_theta_min         3.353
_diffrn_source                   'Sealed X-ray tube'
_diffrn_source_type              'Sealed X-ray tube'
_exptl_absorpt_coefficient_mu    0.142
_exptl_absorpt_correction_T_max  1.00000
_exptl_absorpt_correction_T_min  0.94420
_exptl_absorpt_correction_type   multi-scan
_exptl_absorpt_process_details
;
CrysAlisPro 1.171.39.46e (Rigaku Oxford Diffraction, 2018)
Empirical absorption correction using spherical harmonics,
 implemented in SCALE3 ABSPACK scaling algorithm.
;
_exptl_crystal_colour            'clear colourless'
_exptl_crystal_colour_lustre     clear
_exptl_crystal_colour_primary    colourless
_exptl_crystal_density_diffrn    1.598
_exptl_crystal_description       block
_exptl_crystal_F_000             120
_exptl_crystal_preparation       'From TCI'
_exptl_crystal_recrystallization_method 'From H2O/EtOH with KO2CEt'
_exptl_crystal_size_max          0.211
_exptl_crystal_size_mid          0.174
_exptl_crystal_size_min          0.134
_refine_diff_density_max         0.233
_refine_diff_density_min         -0.189
_refine_diff_density_rms         0.050
_refine_ls_abs_structure_details
;
 Flack x determined using 104 quotients [(I+)-(I-)]/[(I+)+(I-)]
 (Parsons, Flack and Wagner, Acta Cryst. B69 (2013) 249-259).
;
_refine_ls_abs_structure_Flack   -1.8(10)
_refine_ls_extinction_coef       0.16(2)
_refine_ls_extinction_expression Fc^*^=kFc[1+0.001xFc^2^\l^3^/sin(2\q)]^-1/4^
_refine_ls_extinction_method     'SHELXL-2018/3 (Sheldrick 2018)'
_refine_ls_goodness_of_fit_ref   1.119
_refine_ls_hydrogen_treatment    constr
_refine_ls_matrix_type           full
_refine_ls_number_parameters     48
_refine_ls_number_reflns         565
_refine_ls_number_restraints     1
_refine_ls_restrained_S_all      1.118
_refine_ls_R_factor_all          0.0377
_refine_ls_R_factor_gt           0.0354
_refine_ls_shift/su_max          0.000
_refine_ls_shift/su_mean         0.000
_refine_ls_structure_factor_coef Fsqd
_refine_ls_weighting_details
'w=1/[\s^2^(Fo^2^)+(0.0217P)^2^+0.1155P] where P=(Fo^2^+2Fc^2^)/3'
_refine_ls_weighting_scheme      calc
_refine_ls_wR_factor_gt          0.0797
_refine_ls_wR_factor_ref         0.0806
_reflns_Friedel_coverage         0.247
_reflns_Friedel_fraction_full    0.355
_reflns_Friedel_fraction_max     0.238
_reflns_number_gt                531
_reflns_number_total             565
_reflns_threshold_expression     'I > 2\s(I)'
_iucr_refine_instructions_details
;
TITL exp_52_a.res in P3(1)
    exp_52.res
    created by SHELXL-2018/3 at 14:59:49 on 14-May-2019
REM Old TITL exp_52_a.res in P3(1)
REM SHELXT solution in P3(1): R1 0.079, Rweak 0.032, Alpha 0.002
REM <I/s> 0.196 for 4 systematic absences, Orientation as input
REM Flack x = -1.764 ( 1.888 ) from 100 Parsons' quotients
REM Formula found by SHELXT: C2 N O2
CELL 0.71073 7.0167 7.0167 5.4894 90 90 120
ZERR 3 0.0005 0.0005 0.0003 0 0 0
LATT -1
SYMM -Y,+X-Y,0.333+Z
SYMM +Y-X,-X,0.667+Z
SFAC C H N O
UNIT 6 15 3 6

L.S. 10
PLAN  20
TEMP 173
BOND
LIST 6
fmap 2
acta 50
REM <olex2.extras>
REM <HklSrc "%.\\exp_52.hkl">
REM </olex2.extras>

WGHT    0.021700    0.115500
EXTI    0.159773
FVAR       2.64492
O001  4    0.565690    0.678260    0.728988    11.00000    0.01480    0.02236 =
         0.01063    0.00143    0.00209    0.01121
O002  4    0.876729    0.664674    0.759673    11.00000    0.01789    0.03587 =
         0.01346    0.00357    0.00037    0.01658
N003  3    0.577974    0.694896    0.239548    11.00000    0.01433    0.01680 =
         0.00775   -0.00105   -0.00096    0.00810
AFIX 137
H00A  2    0.590745    0.687254    0.079034    11.00000   -1.20000
H00C  2    0.609841    0.830485    0.280158    11.00000   -1.20000
H00B  2    0.440706    0.599509    0.284573    11.00000   -1.20000
AFIX   0
C004  1    0.726286    0.665913    0.639641    11.00000    0.01434    0.01215 =
         0.00962    0.00120    0.00045    0.00427
C005  1    0.731008    0.641106    0.363258    11.00000    0.01696    0.02410 =
         0.01073   -0.00121   -0.00064    0.01456
AFIX  23
H00D  2    0.879098    0.737643    0.303894    11.00000   -1.20000
H00E  2    0.691745    0.490946    0.324548    11.00000   -1.20000
AFIX   0
HKLF 4




REM  exp_52_a.res in P3(1)
REM wR2 = 0.0806, GooF = S = 1.119, Restrained GooF = 1.118 for all data
REM R1 = 0.0354 for 531 Fo > 4sig(Fo) and 0.0377 for all 565 data
REM 48 parameters refined using 1 restraints

END  
     
WGHT      0.0217      0.1155 

REM Highest difference peak  0.233,  deepest hole -0.189,  1-sigma level  0.050
Q1    1   0.7338  0.6683  0.5045  11.00000  0.05    0.23
Q2    1   0.7708  0.5577  0.6901  11.00000  0.05    0.20
Q3    1   0.4009  0.6421  0.7820  11.00000  0.05    0.20
Q4    1   1.0990  0.8971  0.3365  11.00000  0.05    0.17
Q5    1   1.0204  0.6863  0.6994  11.00000  0.05    0.17
Q6    1   0.6979  0.7202 -0.0049  11.00000  0.05    0.17
Q7    1   0.8083  0.6940  0.2364  11.00000  0.05    0.17
Q8    1   0.6395  0.6415  0.3100  11.00000  0.05    0.16
Q9    1   0.8736  0.6560  0.2784  11.00000  0.05    0.16
Q10   1   0.9597  0.7439  0.9961  11.00000  0.05    0.14
Q11   1   0.8441  0.8583  0.1091  11.00000  0.05    0.14
Q12   1   0.2991  0.4205  0.1705  11.00000  0.05    0.14
Q13   1   0.5756  0.6531  0.8684  11.00000  0.05    0.13
Q14   1   0.6835  0.8655  0.8030  11.00000  0.05    0.13
Q15   1   0.8372  0.5213  0.1161  11.00000  0.05    0.13
Q16   1   0.8366  0.7759  0.0459  11.00000  0.05    0.13
Q17   1   0.4839  0.4209  0.7083  11.00000  0.05    0.13
Q18   1   0.6192  0.4164  0.4436  11.00000  0.05    0.13
Q19   1   0.2692  0.4909  0.3025  11.00000  0.05    0.13
Q20   1   0.3758  0.6543  0.3931  11.00000  0.05    0.13

  REM The information below was added by Olex2.
  REM
  REM R1 = 0.0354 for 531 Fo > 4sig(Fo) and 0.0377 for all 1050 data
  REM n/a parameters refined using n/a restraints
  REM Highest difference peak 0.23, deepest hole -0.19
  REM Mean Shift 0, Max Shift 0.000.

  REM +++ Tabular Listing of Refinement Information +++
  REM R1_all = 0.0377
  REM R1_gt = 0.0354
  REM wR_ref = 0.0806
  REM GOOF = 1.119
  REM Shift_max = 0.000
  REM Shift_mean = 0
  REM Reflections_all = 1050
  REM Reflections_gt = 531
  REM Parameters = n/a
  REM Hole = -0.19
  REM Peak = 0.23
  REM Flack = -1.8(10)

  
;
_cod_data_source_file            jo9b02726_si_002.cif
_cod_data_source_block           CCDC1916165
_cod_original_cell_volume        234.06(4)
_cod_database_code               4037662
_shelx_shelxl_version_number     2018/3
_chemical_oxdiff_formula         'C2 H5 N1 O2'
_chemical_oxdiff_usercomment     'glycine '
_shelx_space_group_comment
;
The symmetry employed for this shelxl refinement is uniquely defined
by the following loop, which should always be used as a source of
symmetry information in preference to the above space-group names.
They are only intended as comments.
;
_reflns_odcompleteness_completeness 99.72
_reflns_odcompleteness_iscentric 1
_reflns_odcompleteness_theta     27.42
_olex2_refinement_description
;
1. Fixed Uiso
 At 1.2 times of:
  All C(H,H) groups, All N(H,H,H) groups
2.a Secondary CH2 refined with riding coordinates:
 C005(H00D,H00E)
2.b Idealised Me refined as rotating group:
 N003(H00A,H00C,H00B)
;
_olex2_submission_special_instructions 'No special instructions were received'
_oxdiff_exptl_absorpt_empirical_details
;
Empirical correction (ABSPACK) includes:
- Absorption correction using spherical harmonics
- Frame scaling
;
_oxdiff_exptl_absorpt_empirical_full_max 1.096
_oxdiff_exptl_absorpt_empirical_full_min 0.941
loop_
_space_group_symop_operation_xyz
'x, y, z'
'-y, x-y, z+1/3'
'-x+y, -x, z+2/3'
loop_
_atom_site_label
_atom_site_type_symbol
_atom_site_fract_x
_atom_site_fract_y
_atom_site_fract_z
_atom_site_U_iso_or_equiv
_atom_site_adp_type
_atom_site_occupancy
_atom_site_site_symmetry_order
_atom_site_calc_flag
_atom_site_refinement_flags_posn
O001 O 0.5657(3) 0.6783(3) 0.7290(4) 0.0151(4) Uani 1 1 d .
O002 O 0.8767(3) 0.6647(3) 0.7597(3) 0.0210(5) Uani 1 1 d .
N003 N 0.5780(4) 0.6949(3) 0.2395(5) 0.0128(4) Uani 1 1 d .
H00A H 0.590745 0.687254 0.079034 0.015 Uiso 1 1 calc GR
H00C H 0.609841 0.830485 0.280158 0.015 Uiso 1 1 calc GR
H00B H 0.440706 0.599509 0.284573 0.015 Uiso 1 1 calc GR
C004 C 0.7263(4) 0.6659(4) 0.6396(5) 0.0131(5) Uani 1 1 d .
C005 C 0.7310(4) 0.6411(5) 0.3633(5) 0.0154(5) Uani 1 1 d .
H00D H 0.879098 0.737643 0.303894 0.018 Uiso 1 1 calc R
H00E H 0.691745 0.490946 0.324548 0.018 Uiso 1 1 calc R
loop_
_atom_site_aniso_label
_atom_site_aniso_U_11
_atom_site_aniso_U_22
_atom_site_aniso_U_33
_atom_site_aniso_U_23
_atom_site_aniso_U_13
_atom_site_aniso_U_12
O001 0.0148(10) 0.0224(10) 0.0106(7) 0.0014(9) 0.0021(8) 0.0112(8)
O002 0.0179(10) 0.0359(12) 0.0135(9) 0.0036(9) 0.0004(8) 0.0166(9)
N003 0.0143(11) 0.0168(11) 0.0078(8) -0.0010(9) -0.0010(9) 0.0081(10)
C004 0.0143(13) 0.0122(12) 0.0096(10) 0.0012(9) 0.0005(9) 0.0043(10)
C005 0.0170(14) 0.0241(14) 0.0107(11) -0.0012(11) -0.0006(10) 0.0146(12)
loop_
_atom_type_symbol
_atom_type_description
_atom_type_scat_dispersion_real
_atom_type_scat_dispersion_imag
_atom_type_scat_source
C C 0.0033 0.0016 'International Tables Vol C Tables 4.2.6.8 and 6.1.1.4'
H H 0.0000 0.0000 'International Tables Vol C Tables 4.2.6.8 and 6.1.1.4'
N N 0.0061 0.0033 'International Tables Vol C Tables 4.2.6.8 and 6.1.1.4'
O O 0.0106 0.0060 'International Tables Vol C Tables 4.2.6.8 and 6.1.1.4'
loop_
_geom_angle_atom_site_label_1
_geom_angle_atom_site_label_2
_geom_angle_atom_site_label_3
_geom_angle
O001 C004 C005 117.4(2)
O002 C004 O001 125.3(3)
O002 C004 C005 117.2(2)
N003 C005 C004 111.6(2)
loop_
_geom_bond_atom_site_label_1
_geom_bond_atom_site_label_2
_geom_bond_distance
O001 C004 1.271(3)
O002 C004 1.248(3)
N003 C005 1.470(3)
C004 C005 1.529(3)
loop_
_refln_index_h
_refln_index_k
_refln_index_l
_refln_F_squared_meas
_refln_F_squared_sigma
0 0 -7 -2.18 7.15
0 0 -6 585.95 26.94
0 0 -5 -2.25 5.73
0 0 -4 -2.87 4.46
0 0 -4 2.67 3.73
0 0 -3 3237.82 80.2
0 0 -2 -0.27 2.91
0 0 -1 1.78 1.2
0 0 -1 -1.07 2.09
0 0 1 -0.23 1.19
0 0 2 0.24 2.77
1 -1 -7 223.28 17.63
0 1 -7 211.36 17.92
-1 0 -7 231.55 18.19
-1 0 -6 117.91 12.51
0 1 -6 116.04 12.48
1 -1 -6 107.33 12.01
1 -1 -5 244.34 15.99
0 1 -5 271.53 16.33
0 1 -5 279.76 14.83
-1 0 -5 269.71 16.28
-1 0 -4 372.33 17.75
0 1 -4 426.34 17.33
0 1 -4 405.77 18.37
0 1 -3 74.11 7.04
1 -1 -3 49.52 4.66
-1 0 -3 44.8 5.81
0 1 -3 49.98 5.71
1 -1 -3 52.89 6.01
0 1 -2 207.39 9.24
1 -1 -2 195.76 9.35
1 -1 -2 195.86 8.42
-1 0 -2 218.92 9.43
0 1 -2 194.26 9.25
-1 0 -1 2407.12 50.06
0 1 -1 2275.81 50.41
0 1 0 187.3 6.02
-1 0 1 1453.57 35.41
-1 0 1 1452.32 34.54
1 -1 1 1455.13 33.93
0 1 2 9043.48 201.08
-1 0 2 9081.11 203.29
-1 0 2 8904.3 202.72
-1 0 3 129.13 6.91
1 0 -7 101.42 12.99
-1 1 -7 117.81 13.85
0 -1 -7 113.4 13.76
1 0 -6 65.32 10.3
-1 1 -6 80.4 11.01
0 -1 -6 52.86 9.63
1 0 -5 28.65 7.15
0 -1 -5 26.9 7.25
-1 1 -5 33.4 7.89
1 0 -5 25.82 6.32
0 -1 -4 167.65 11.9
-1 1 -4 195.85 12.52
-1 1 -4 184.21 9.77
1 0 -4 178.17 11.36
1 0 -4 180.34 11.44
0 -1 -3 126.96 5.83
-1 1 -3 134.77 9.15
0 -1 -3 120.96 8.63
1 0 -3 115.24 8.42
-1 1 -3 123.78 7.03
0 -1 -2 9102.49 205.48
1 0 -2 8990.24 204.62
-1 1 -2 9058.95 205.63
-1 1 -2 9021.84 202.69
0 -1 -1 1544.09 35.9
0 -1 -1 1472.47 36.03
1 0 -1 1458.1 34.99
-1 1 -1 1477.6 36.16
0 -1 -1 1401.91 34.76
0 -1 0 188.65 5.95
1 0 0 200.85 5.96
-1 1 0 190.27 6.52
0 -1 1 2200.27 49.93
0 -1 1 2295.87 49.76
1 0 2 203.75 8.93
0 -1 2 216.61 9.02
1 -2 -7 197.78 17.37
1 1 -7 217.84 17.73
-2 1 -7 214.18 17.75
1 -2 -6 156.43 14.29
1 1 -6 146.42 13.54
-2 1 -6 150.97 14.17
-2 1 -5 185.46 14.09
1 1 -5 201.31 13.62
1 1 -5 170.09 13.06
1 1 -4 591.18 23.15
1 -2 -4 620.53 24.57
1 1 -4 636.3 23.91
-2 1 -4 595.16 23.8
-2 1 -3 1564.33 44.17
1 -2 -3 1568.38 44.8
1 1 -3 1605.09 43.41
1 1 -3 1570.38 44.22
1 1 -2 2376.58 57.22
1 1 -2 2349.04 59.15
1 -2 -2 2272.07 59.02
-2 1 -2 2344.37 58.19
1 -2 -2 2290.63 58.05
1 -2 -1 355.35 12.32
1 1 -1 365.29 13.05
1 -2 -1 378.51 12.69
1 1 -1 374.31 10.92
-2 1 -1 369.33 12.1
-2 1 0 9632.56 218.21
1 -2 0 9893.39 220.08
1 1 0 9778.08 216.93
1 -2 0 9983.43 219.37
-2 1 1 1259.42 31.5
1 -2 1 1236.93 32.16
1 -2 2 159.33 7.81
1 1 2 154.15 7.72
1 -2 2 159.72 8.41
2 -3 -7 13.64 8.9
-3 1 -7 3.33 8.05
1 2 -6 784.15 32.23
-3 1 -6 800.6 33.09
-3 1 -5 107.09 11.05
2 -3 -5 114.45 11.53
1 2 -5 121.95 11.3
1 2 -4 381.76 17.48
2 -3 -4 356.58 18.39
-3 1 -4 393.52 18.36
-3 1 -3 143.55 9.51
2 -3 -3 137.46 10.11
1 2 -3 129.38 8.76
1 2 -2 235.24 10.12
-3 1 -2 224.03 10.45
2 -3 -1 1462.95 38.77
1 2 -1 1473.84 36.82
-3 1 -1 1505.5 37.35
-3 1 0 4745.89 107.19
2 -3 0 4655.08 111.19
1 2 0 4727.53 107.59
2 -3 0 4749.29 109.92
2 -3 1 423.33 14.9
-3 1 1 417.75 13.13
2 -3 1 423.19 15.07
2 -3 2 65.75 5.29
-2 0 -7 62.23 11.08
0 2 -7 66.41 11.34
2 -2 -7 70 11.54
-2 0 -6 27.44 7.82
0 2 -6 19.5 7.78
2 -2 -6 20.04 7.6
-2 0 -5 43.27 8
0 2 -5 52.31 8.58
-2 0 -4 1704.69 50.37
0 2 -4 1772.87 51.06
2 -2 -4 1766.37 51.46
2 -2 -4 1773.51 47.69
2 -2 -3 556.08 21.65
2 -2 -3 604.65 20.64
0 2 -3 643.97 22.09
-2 0 -3 607.68 21.37
-2 0 -2 770.54 18.76
2 -2 -2 781.18 23.19
-2 0 -2 752.19 22.75
0 2 -2 782.22 23.46
0 2 -1 843.58 22.87
2 -2 -1 834.97 22.91
-2 0 -1 822.07 21.37
-2 0 -1 796.84 21.14
2 -2 0 2557.46 60.88
-2 0 0 2653.55 60.9
0 2 0 2493.94 60.46
2 -2 1 866.34 23
-2 0 1 827.79 23.17
-2 0 2 4650.98 107.82
-2 0 2 4604.68 106.11
2 -2 2 4544.5 105.11
2 -2 2 4623.95 105.48
-1 -1 -7 110.62 13.67
-1 2 -7 106.51 13.53
2 -1 -7 127.38 14.05
2 -1 -6 16.23 7.02
-1 -1 -6 33.9 8.42
-1 2 -6 28.59 8.57
2 -1 -6 29.45 7.74
-1 2 -5 83.93 10.44
-1 -1 -5 102.93 10.72
2 -1 -5 84.93 10.18
-1 2 -4 535.38 22.04
-1 -1 -4 492.6 21.16
2 -1 -3 343.19 14.72
2 -1 -3 343.65 14.22
-1 2 -3 346.96 15.39
-1 -1 -2 157.27 8.16
2 -1 -2 148.57 8.3
-1 -1 -2 155.58 5.85
2 -1 -2 142.3 7.71
2 -1 -2 153.18 8.07
-1 2 -2 146.48 8.57
-1 -1 -1 1133.16 30.12
-1 2 -1 1297.38 32.16
-1 -1 -1 1188.33 30.11
2 -1 -1 1235.02 30.21
2 -1 -1 1196.68 31.88
-1 -1 0 9778.08 216.93
2 -1 0 9796.81 219.79
2 -1 0 9744.86 218.26
-1 2 0 9999 220.17
-1 2 1 371.68 12.23
2 -1 1 362.43 10.81
2 -1 1 368.84 11.84
-1 -1 1 364.75 10.72
-1 2 1 400.14 13.37
-1 -1 1 375.96 12.65
-1 2 2 2353.22 57.32
-1 -1 2 2392.58 57.22
2 -1 2 2396.48 53.59
2 -1 2 2287.36 57.88
-1 -1 3 1566.69 40.88
0 -2 -7 104.09 13.13
2 0 -7 117 13.88
-2 2 -7 103.53 13.43
0 -2 -6 114.87 12.87
-2 2 -6 93.54 11.7
2 0 -6 108.54 11.77
2 0 -6 92.7 11.32
2 0 -5 98.02 10.32
-2 2 -5 107.55 11.27
0 -2 -5 101.63 10.93
2 0 -5 121.62 11.14
2 0 -4 120.37 9.95
2 0 -4 118.08 9.29
-2 2 -4 115.91 10.22
0 -2 -4 112.54 9.83
2 0 -3 704.32 24.93
2 0 -3 688.73 23.14
-2 2 -3 759.96 25.3
0 -2 -3 707.92 24.79
0 -2 -2 4655.31 107.27
0 -2 -2 4704.2 109.94
-2 2 -2 4534.92 109.86
2 0 -2 4600.96 107.51
0 -2 -2 4675.69 108.71
0 -2 -1 838.29 22.61
2 0 -1 801.29 20.64
2 0 -1 825.08 20.72
-2 2 -1 825.89 21.94
2 0 -1 826.81 23.74
-2 2 -1 844.89 23.86
2 0 0 2561.61 60.93
0 -2 0 2609.33 61.02
-2 2 0 2694.34 62.67
-2 2 0 2620.68 62.21
0 -2 1 835.13 22.56
-2 2 1 834.36 23.86
0 -2 2 791.61 23.67
2 0 2 753.3 22.45
0 -2 2 816.11 23.11
1 -3 -7 90.45 12.85
-3 2 -7 68 11.88
1 -3 -6 270.19 18.97
-3 2 -6 307.25 19.41
2 1 -5 95.22 10.61
1 -3 -5 93.74 10.88
-3 2 -5 90.64 10.44
2 1 -4 621.8 24.99
-3 2 -4 604.41 24.19
1 -3 -4 568.97 24.27
2 1 -4 579.91 22.5
-3 2 -3 22.25 5.02
1 -3 -3 20.85 5.29
2 1 -3 22.47 5.55
2 1 -3 26.83 4.73
2 1 -2 371.14 15.74
2 1 -2 365.13 12.57
-3 2 -2 350.14 14.49
1 -3 -1 710.76 21.98
2 1 -1 656.56 21.6
2 1 -1 683.26 17.32
1 -3 -1 695.97 20.69
-3 2 -1 688.41 20.98
-3 2 0 3235.64 75.44
1 -3 0 3206.46 77.25
1 -3 0 3090.17 75.33
1 -3 1 180.13 8.64
-3 2 1 192.74 8.94
2 1 2 540.63 17.06
-4 2 -7 63.17 11.36
2 -4 -6 29.85 8.7
-4 2 -6 38.8 9.34
2 -4 -5 9.15 6.59
-4 2 -5 12.28 6.61
-4 2 -4 358.73 17.93
2 -4 -4 352.9 19
2 -4 -3 297.36 15.95
-4 2 -3 291.82 14.51
-4 2 -2 644.85 21.75
-4 2 -1 807.22 23.91
2 -4 -1 786.28 26.28
2 -4 0 60.49 6.48
-4 2 0 66.64 4.98
-4 2 1 77.85 5.71
2 -4 1 78.61 6.91
2 -4 2 183.91 10.42
3 -5 -6 161.45 15.89
3 -5 -5 3.97 6.51
3 -5 -4 382.3 20.74
3 -5 0 351.95 16.59
3 -5 1 183.49 11.53
3 -5 2 773.34 26.95
-4 1 -7 24.95 8.97
3 -4 -6 111.37 13.23
-4 1 -6 104.82 12.46
3 -4 -5 17.31 7.09
-4 1 -5 15.04 6.49
-4 1 -4 1297.81 40.03
3 -4 -4 1236.82 42.14
-4 1 -3 779.82 25.89
-4 1 -2 117.07 7.43
1 3 -2 100.51 6.93
1 3 -1 292.9 11.31
-4 1 -1 307.32 10.83
-4 1 0 911.26 23.49
1 3 0 941.14 25.79
1 3 1 33.01 4.65
3 -4 1 49.64 5.55
3 -4 2 3044.13 75.94
-3 0 -7 192.13 17.16
0 3 -7 178.71 16.33
3 -3 -7 179.05 17.13
-3 0 -6 43.68 9.49
0 3 -6 45.63 9.39
-3 0 -5 122.08 11.71
0 3 -5 119.98 11.41
3 -3 -5 116.96 11.88
3 -3 -4 377.28 17.26
0 3 -4 360.64 17.72
3 -3 -4 398.59 19.04
-3 0 -4 352.94 17.31
3 -3 -3 59.12 7.16
0 3 -3 65.47 6.96
-3 0 -3 65.39 6.59
-3 0 -2 4085.21 96.18
0 3 -2 4050.48 98.02
0 3 -1 207.23 9.53
-3 0 -1 206.51 7.58
3 -3 -1 195.11 9.42
-3 0 -1 216.11 8.87
-3 0 0 345.13 13
3 -3 0 364.38 13.05
0 3 0 327.49 12.55
0 3 1 1322.85 36.38
3 -2 -7 242.02 18.39
-1 3 -7 250.23 19
-2 -1 -7 274.45 19.73
-1 3 -6 614.14 27.97
-2 -1 -6 562.64 26.95
3 -2 -6 573.91 27.32
-2 -1 -5 96.14 10.51
-1 3 -5 106.72 11.24
3 -2 -4 495.7 20.15
-1 3 -4 467.18 21.24
3 -2 -4 498.73 21.05
-2 -1 -4 491.57 20.64
3 -2 -3 647.67 23.09
-1 3 -3 623.62 23.47
3 -2 -3 650.92 23.09
-2 -1 -3 647.4 22.45
-1 3 -2 487.63 18.45
3 -2 -2 471.16 18.6
3 -2 -2 543.12 17.27
-2 -1 -2 505.96 16.76
-1 3 -1 178.06 9.2
3 -2 -1 202.2 8.47
-2 -1 -1 176.26 7.03
-2 -1 0 3276.59 77.13
-1 3 0 3381.1 79.24
3 -2 0 3243.66 77.31
3 -2 1 643.41 19.45
-2 -1 1 637.99 19.99
-2 -1 1 657.68 16.39
-1 3 1 632.78 21
-2 -1 2 365.3 11.89
-1 3 2 341.49 15.64
-1 -2 -7 194.99 17.25
-2 3 -7 189.32 16.79
3 -1 -6 613.58 28.56
-2 3 -6 658.67 29.49
3 -1 -6 651.06 28.07
-1 -2 -6 591.16 28.05
-2 3 -5 276.45 17.01
3 -1 -5 256.18 15.57
-1 -2 -5 268.7 16.69
-2 3 -4 414.77 19.86
3 -1 -4 437.36 18.91
-2 3 -3 271.78 14.19
3 -1 -3 279.57 12.94
-1 -2 -3 268.26 13.42
-2 3 -2 73.14 6.87
-1 -2 -2 69.63 5.71
3 -1 -2 72.73 5.44
-1 -2 -2 66.16 5.35
3 -1 -2 63.95 6.63
3 -1 -2 65.66 5.3
3 -1 -1 425.85 16.04
-2 3 -1 453.81 16.18
-1 -2 -1 394.84 13
3 -1 -1 432.06 12.8
3 -1 0 4626.64 105.68
3 -1 0 4637.38 109.1
-2 3 0 4534.42 109.83
-1 -2 0 4772.75 105.87
-2 3 0 4679.08 108.88
3 -1 1 1471.5 37.51
-1 -2 1 1449.29 36.42
3 -1 1 1489.38 36.97
-1 -2 1 1488.02 39.14
-2 3 1 1549.55 40.49
-2 3 2 225.08 11.96
-1 -2 2 231.94 9.57
3 -1 2 236.12 9.93
0 -3 -7 81.61 12.79
3 0 -7 116.48 14.03
-3 3 -7 101.43 13.61
3 0 -6 33.81 9.22
-3 3 -6 40.1 9.65
0 -3 -6 34.48 8.91
3 0 -5 13.13 6.76
-3 3 -5 25.63 7.49
-3 3 -4 2734.31 74.46
0 -3 -4 2682 74.13
3 0 -4 2787 75.28
0 -3 -3 249.51 13.6
-3 3 -3 236.7 13.57
3 0 -3 273.78 14.63
-3 3 -2 209.52 11.35
3 0 -2 215.19 11.7
0 -3 -2 178.22 9.5
0 -3 -1 1492.12 37.09
3 0 -1 1387.63 38.57
-3 3 -1 1410.93 39.22
-3 3 -1 1425.27 37.03
3 0 -1 1406.68 33.41
-3 3 0 343.5 13.77
0 -3 0 334.07 11.83
3 0 0 349.67 12.19
-3 3 0 345.19 13.08
0 -3 1 201.46 8.97
-3 3 1 223.29 10.75
-3 3 2 4251.78 103.67
3 1 -7 30.74 9.74
3 1 -6 18.84 8.39
-4 3 -6 13.1 7.65
1 -4 -5 124.35 12.73
-4 3 -5 120.18 11.9
3 1 -5 130.92 12.94
1 -4 -4 166.52 12.83
-4 3 -4 167.63 12.67
3 1 -4 180.97 13.75
1 -4 -3 894.56 31.8
-4 3 -3 946.85 31.55
3 1 -3 918.46 32.44
-4 3 -2 2159.35 57.12
1 -4 -2 2069.69 56.75
3 1 -2 2163.97 58.32
3 1 -1 206.87 10.89
-4 3 -1 213.22 10.75
-4 3 -1 197.92 9.38
1 -4 -1 197.27 11.22
-4 3 0 235.91 11.19
-4 3 1 818.4 25.57
-4 3 2 371.51 16.06
2 -5 -6 11.19 7.83
-5 3 -6 13.05 7.81
-5 3 -5 0.87 5.64
2 -5 -5 8.86 6.88
2 -5 -4 193.51 14.53
-5 3 -4 162.31 12.62
-5 3 -3 168.68 11.63
-5 3 -2 705.27 24.78
-5 3 -1 912.43 28.25
2 -5 -1 911.23 30.97
-5 3 0 386.51 15.22
2 -5 0 380.94 17.5
2 -5 1 116.03 9.32
-5 3 1 123.76 8.01
2 -5 2 177.18 11.32
-5 3 2 154.66 10.05
3 -6 -6 558.82 29.28
3 -6 -5 4.29 6.64
3 -6 -4 37.46 8.4
3 -6 -1 194.63 13.17
3 -6 0 1266.88 41.09
3 -6 1 37.69 6.88
3 -6 2 130.41 10.75
4 -7 -5 84.32 12.42
4 -7 -4 434.69 24.6
4 -7 1 226.52 15.1
4 -7 2 529.14 24.19
4 -6 -5 62.63 10.45
4 -6 -4 23.49 8.15
4 -6 2 89.15 9.02
4 -5 -6 80.07 12.15
4 -5 -5 15.88 7.21
4 -5 -4 230.84 16.1
4 -4 -6 563.67 28.2
4 -4 -5 24.46 7.49
4 -4 -4 71.48 9.47
0 4 -4 67.25 8.3
4 -4 -4 60.33 8.58
0 4 -3 342.16 16.13
0 4 -2 137.73 9.02
0 4 -1 453.02 17.08
0 4 0 2291.6 58.66
0 4 1 566.97 20.72
0 4 2 201.49 11.95
-1 4 -7 56.67 10.79
-1 4 -6 344.3 20.77
4 -3 -5 129.53 12.2
-1 4 -5 127.21 12.02
-3 -1 -5 155.35 12.54
4 -3 -4 1167.08 38.75
-1 4 -4 1219.48 39.62
4 -3 -4 1170.2 38.87
-3 -1 -4 1181.02 37.49
4 -3 -3 131.84 9.96
-1 4 -3 132.82 10.52
4 -3 -3 124.61 10.3
-3 -1 -3 134.22 8.94
-1 4 -2 381.5 16.78
4 -3 -2 422.68 18.08
-1 4 -1 867.11 27.3
-1 4 0 223.78 11.61
4 -3 0 264.98 10.89
-3 -1 0 260.87 10.47
-1 4 1 185.39 10.67
-1 4 2 2272.52 61.09
4 -2 -7 154.67 15.46
-2 4 -7 113.54 14.09
-2 -2 -7 156.12 15.89
-2 4 -6 262.77 18.39
-2 -2 -6 250.43 17.79
-2 4 -5 103.55 11.53
-2 -2 -5 106.72 11.13
4 -2 -4 1254.55 40.28
4 -2 -4 1290.9 39.77
-2 4 -4 1241.87 41.35
-2 -2 -4 1228.46 39.55
4 -2 -3 128.1 9.09
4 -2 -3 141.76 10.81
-2 4 -3 137.76 10.58
4 -2 -2 194.93 9.98
-2 4 -2 185.14 11.41
4 -2 -2 176.71 11.32
-2 -2 -2 196.28 9.5
-2 -2 -1 91.31 5.17
-2 4 -1 82.78 7.14
4 -2 -1 79.56 7.42
-2 -2 0 55.31 5.07
4 -2 0 56.26 5.9
-2 4 0 62.05 6.19
4 -2 1 836.72 24.97
-2 4 1 864.11 27.6
-2 4 2 614.16 23.22
4 -1 -7 53.15 10.84
-1 -3 -7 39.22 10.57
4 -1 -6 129.07 14.1
-3 4 -6 119 13.38
-1 -3 -6 133.43 13.96
4 -1 -5 90.33 11.24
-3 4 -5 92.82 10.88
-1 -3 -5 92.21 10.86
-3 4 -4 187.73 13.86
-1 -3 -4 200 13.41
-3 4 -3 224.53 13.77
-1 -3 -3 231 12.7
-3 4 -2 3100.89 79.25
-1 -3 -2 3043.34 76.32
-3 4 -1 50.54 6.01
-3 4 0 980.24 30.57
-3 4 1 311.15 14.51
-3 4 2 92.51 8.51
4 0 -6 351.71 22.26
-4 4 -6 367.25 22.15
0 -4 -5 21.02 7.56
4 0 -5 20.42 7.45
-4 4 -5 35.28 8.3
-4 4 -4 268.47 16.44
4 0 -4 253.11 16.59
0 -4 -4 264.47 15.89
0 -4 -3 116.97 9.85
4 0 -3 128.23 10.92
-4 4 -3 114.65 10.3
-4 4 -2 206.84 12.51
4 0 -2 216.07 12.72
0 -4 -2 192.06 11.26
4 0 -1 574.97 20.46
-4 4 -1 557.59 21.37
-4 4 0 2133.96 59.53
4 0 0 2339.62 56.7
-4 4 1 426.14 17.82
-4 4 2 136.9 10.4
4 1 -6 532.34 28.11
-5 4 -6 517.68 26.93
1 -5 -6 512.88 27.45
1 -5 -5 42.87 9.47
4 1 -5 23.61 7.69
-5 4 -5 39.45 8.66
4 1 -4 234.09 16.38
-5 4 -4 242.84 15.75
1 -5 -4 225.19 15.66
1 -5 -3 -1.47 5.19
-5 4 -3 0.7 4.84
4 1 -3 -1.54 6.32
4 1 -2 143.66 11.11
1 -5 -2 149.55 11.06
-5 4 -2 143.07 10.57
1 -5 -1 35.02 5.98
-5 4 -1 27.38 5.4
-5 4 0 399.35 16.87
1 -5 0 380.41 17.99
-5 4 1 23.57 5.28
-5 4 2 136.48 10.26
2 -6 -6 10.47 7.89
-6 4 -5 80.46 10.85
2 -6 -5 71.53 11.07
2 -6 -4 1137.6 41.47
-6 4 -4 1128.04 39.38
-6 4 -3 198.27 13.43
-6 4 -2 119.46 9.84
2 -6 -2 110.59 10.41
-6 4 -1 265.78 13.91
2 -6 -1 244.41 15.03
2 -6 0 191.6 13.21
2 -6 1 59.21 7.95
2 -6 2 1175.14 39.27
3 -7 -5 3.41 7.7
3 -7 -4 202.89 16.48
3 -7 -1 60.75 9.27
3 -7 0 320.6 18.58
3 -7 1 51.95 8.83
3 -7 2 43.91 7.84
4 -8 -4 41.17 9.61
4 -8 1 4.74 5.8
4 -8 2 54.4 9.44
5 -8 -4 285.64 20.99
5 -7 -5 29.1 9.35
5 -7 -4 19.61 8.14
5 -6 -5 4.32 7.02
5 -6 -4 2.96 6.49
5 -5 -6 45.07 10.26
5 -5 -5 92.75 12.08
5 -5 -4 99.22 10.97
5 -5 -4 88.45 10.86
0 5 1 190.02 11.75
0 5 2 195.73 13.23
5 -4 -5 13.43 6.57
-1 5 -5 18.99 7.15
5 -4 -4 273.11 16.63
-1 5 -4 275.6 16.45
5 -4 -4 279.57 16.99
-1 5 -3 81.41 9.07
5 -4 -3 73.35 9.45
-1 5 -2 118.94 9.51
5 -4 -2 114.46 10.41
-1 5 -1 23.28 5.22
-1 5 0 382.74 16.8
-1 5 1 26.47 5.58
-1 5 2 129.32 11
-2 5 -6 100.37 12.52
-2 5 -5 133.51 13.13
5 -3 -4 839.25 31.77
-2 5 -4 785.81 31.22
-2 5 -3 109.29 10.11
5 -3 -3 91.91 10.04
-2 5 -2 174.57 11.76
5 -3 -2 184.19 12.62
-2 5 -1 111.29 9.11
5 -3 -1 129.16 9.95
5 -3 0 404.4 17.32
-2 5 0 382.08 17.36
5 -3 1 981.04 29.35
-2 5 1 874.1 30.75
-2 5 2 717.58 27.42
5 -2 -6 245.75 19.06
-3 5 -6 274.68 19.6
-3 5 -5 87.69 11.25
-3 5 -4 338.48 19.24
-3 5 -3 33.6 6.86
-3 5 -2 730.47 27.23
5 -2 -2 715.34 27.2
5 -2 -1 155.73 11.26
-3 5 -1 172.53 11.45
-3 5 0 321.45 15.9
5 -2 0 350.8 15.81
-3 5 1 75 8.02
5 -2 1 54.97 5.98
-3 5 2 154.21 12.02
-3 5 3 77.87 10.01
-4 5 -6 81.16 12.3
5 -1 -6 71.28 12.18
-4 5 -5 90.84 11.47
5 -1 -5 81.01 11.73
5 -1 -4 265.26 17.33
-4 5 -4 230.64 16.31
-1 -4 -4 281.85 16.17
-4 5 -3 53.38 8.48
-1 -4 -3 33.76 5.96
5 -1 -3 45 8.03
-1 -4 -2 176.74 10.89
-4 5 -2 224.61 13.64
5 -1 -2 196.15 12.72
5 -1 -1 102.79 8.26
-4 5 -1 115.76 9.77
-4 5 0 18.65 5.51
-4 5 1 718.13 26.72
-4 5 2 351.49 18.06
-4 5 3 128.88 11.92
-5 5 -6 37.05 9.37
5 0 -6 47.84 11.08
0 -5 -5 24 8.1
-5 5 -5 24.16 8.55
5 0 -5 22.44 8.32
5 0 -4 347.44 20.7
-5 5 -4 410.05 21.4
0 -5 -4 388.96 20.53
0 -5 -3 343.2 18
5 0 -3 368.18 19.38
-5 5 -3 366.21 19.27
-5 5 -2 182.42 12.65
5 0 -2 181.85 12.48
0 -5 -2 185.02 12.21
-5 5 -1 174.11 12.14
5 0 -1 172.49 11.1
-5 5 0 2134.92 59.45
-5 5 1 7.07 4.63
-5 5 2 105.8 10.17
-5 5 3 354.39 19.4
1 -6 -5 40.01 9.83
-6 5 -5 34.21 8.8
5 1 -5 49.01 10.5
-6 5 -4 49.71 9.28
1 -6 -4 54.26 9.44
5 1 -4 63.25 10.31
1 -6 -3 119.38 11.66
-6 5 -3 139.58 11.96
5 1 -3 122.42 12.03
-6 5 -2 232.48 14.72
1 -6 -2 270.22 15.94
-6 5 -1 374.78 18.08
1 -6 -1 346.06 18.46
-6 5 0 88.88 8.86
1 -6 0 84.22 9.44
-6 5 1 158.87 11.56
-6 5 2 392.97 19.32
-6 5 3 30.66 7.23
2 -7 -5 64.05 11.32
2 -7 -4 28.24 8.46
2 -7 -2 86.94 10.42
2 -7 -1 65.78 9.67
2 -7 0 318.17 18.91
2 -7 1 199 14.64
2 -7 2 99.19 11
3 -8 -4 272.23 19.72
3 -8 -1 45.55 8.62
3 -8 0 14.74 6.67
3 -8 1 14.68 7.36
3 -8 2 136.45 13.66
4 -9 1 131.04 13.93
4 -9 2 37.12 8.79
6 -8 -4 78.49 12.82
6 -7 -5 3.48 7.62
6 -7 -4 84.36 12.28
6 -6 -5 10.69 7.4
6 -6 -4 107.03 12.48
6 -6 -4 119.29 13.08
6 -5 -4 325.34 19.91
6 -5 -3 43.34 8.84
-1 6 -2 382.22 18.5
6 -5 -2 386.72 20.71
-1 6 -1 142.62 10.87
-1 6 0 89.12 8.74
-1 6 1 384.25 18.7
-1 6 2 204.63 14.39
-2 6 -6 75.52 11.66
-2 6 -5 62.58 10.37
6 -4 -5 52.69 9.83
-2 6 -4 7.16 6.13
6 -4 -4 10.07 7.28
-2 6 -3 135.49 11.69
6 -4 -3 109.97 11.67
-2 6 -2 1206.07 39.65
6 -4 -2 1196.72 40.77
6 -4 -1 63.91 8.73
-2 6 -1 74.72 8.4
6 -4 0 184.18 12.52
-2 6 0 197.68 12.76
-2 6 1 254.48 15.12
-2 6 2 126.37 11.54
-2 6 3 197.01 15.37
-3 6 -6 339.79 22.31
-3 6 -5 48.61 9.93
-3 6 -4 122.54 12.21
-3 6 -3 144.55 12.25
6 -3 -3 135.76 12.76
-3 6 -2 125.99 10.87
6 -3 -2 112.95 11.31
6 -3 -1 40.6 7.41
-3 6 -1 25.9 6.09
6 -3 0 1278.29 39.4
-3 6 0 1220.41 40.28
-3 6 1 182.27 12.92
-3 6 2 20.91 6.65
-3 6 3 389.82 22.21
-4 6 -5 38.26 9.8
6 -2 -5 38.92 10.3
-4 6 -4 288.8 18.53
-4 6 -3 180.14 14.03
-4 6 -2 83.16 9.4
-4 6 -1 99.31 9.76
-4 6 0 1431.25 45.13
-4 6 1 325.67 17.7
-4 6 2 352.86 19.47
-4 6 3 321.28 19.11
-5 6 -5 33.55 9.13
6 -1 -5 21 9.39
-5 6 -4 88.86 11.34
6 -1 -4 78.09 10.97
6 -1 -3 35.01 7.89
-5 6 -3 21.05 7.21
6 -1 -2 13.86 5.8
-1 -5 -2 8.31 5.03
-5 6 -2 5.65 5.48
-5 6 -1 218.58 14.45
-5 6 0 142.69 11.63
-5 6 1 97.98 10.01
-5 6 2 989.26 36.64
-5 6 3 48.73 8.85
-6 6 -5 31.64 9.75
6 0 -5 20.61 8.41
6 0 -4 37.97 9.08
-6 6 -4 33.38 8.53
6 0 -3 13.31 6.27
-6 6 -3 13.39 6.89
-6 6 -2 1091.73 38.29
0 -6 -2 1022.36 36.88
-6 6 -1 72.89 9.39
0 -6 -1 64.55 8.96
-6 6 0 62.65 8.7
-6 6 1 451.02 21.74
-6 6 2 36.45 7.69
-6 6 3 120.21 12.66
-7 6 -5 16.04 7.98
-7 6 -4 139.38 13.71
-7 6 -3 59.06 9.56
1 -7 -2 61.54 9.35
-7 6 -2 92.78 10.64
-7 6 -1 33.68 7.14
1 -7 -1 30.75 7.7
1 -7 0 788.62 32.29
-7 6 0 817.19 30.96
-7 6 1 -5.57 5.67
1 -7 1 4.61 5.78
2 -8 -2 7.08 6.5
2 -8 -1 50.95 9.79
2 -8 0 193.29 15.74
2 -8 1 111.93 12.5
2 -8 2 28.94 8.02
3 -9 -1 24.59 8.13
3 -9 0 180.46 16.48
3 -9 1 32.15 8.78
3 -9 2 240.87 18.53
7 -7 -4 105.62 13.53
7 -7 -3 40.93 9.47
7 -6 -5 65.91 11.87
7 -6 -4 183.04 16.44
7 -6 -3 183.53 16.01
7 -6 -2 287.58 19.1
7 -5 -5 46.05 10.48
7 -5 -4 17.64 8.14
7 -5 -3 49.68 9.56
-2 7 -3 52.65 8.97
7 -5 -2 113.06 12.07
-2 7 -2 76.23 9.57
-2 7 -1 207.95 14.12
7 -5 -1 189.23 14.82
7 -5 0 336.05 18.65
-2 7 0 351.16 18.65
-2 7 1 60.37 9.15
-2 7 2 71.41 10.05
-2 7 3 123.34 13.06
-3 7 -5 47.79 10.09
-3 7 -4 658.47 30.24
7 -4 -4 751.1 32.28
7 -4 -3 50.04 9.83
-3 7 -3 30.78 7.62
7 -4 -2 41.63 8.73
-3 7 -2 48.43 8.36
7 -4 -1 44.44 8.5
-3 7 -1 46.94 8
7 -4 0 314.37 17.36
-3 7 0 315.33 17.97
-3 7 1 65.3 9.13
-3 7 2 501.53 24.58
-3 7 3 13.14 7.48
-4 7 -5 94.47 12.63
-4 7 -4 65.59 10.19
-4 7 -3 25.47 8.07
-4 7 -2 487.98 23.99
-4 7 -1 236.14 15.73
7 -3 -1 215.41 14.98
-4 7 0 30.22 7.23
7 -3 0 14.92 6.43
-4 7 1 216.62 15.33
-4 7 2 156.48 13.87
-4 7 3 21.14 7.71
7 -2 -5 21.82 8.93
-5 7 -5 3.42 7.97
7 -2 -4 138.26 14.45
-5 7 -4 130.38 13.86
7 -2 -3 20.26 7.72
-5 7 -3 15.55 6.94
-5 7 -2 604.7 27.51
-5 7 -1 76.77 10.1
-5 7 0 149.86 12.92
-5 7 1 37.35 7.93
-5 7 2 22.1 7.3
-5 7 3 76.38 11.18
7 -1 -4 36.41 9.74
-6 7 -4 25.54 8.81
-6 7 -3 172.26 14.91
-6 7 -2 109.85 12.11
-6 7 -1 80.18 10.32
-6 7 0 1611.63 51.81
-6 7 1 54.46 8.79
-6 7 2 136.44 13.25
-6 7 3 105.66 12.95
7 0 -4 48.26 10.53
-7 7 -4 70.96 10.75
-7 7 -3 51.47 9.9
-7 7 -2 11.34 6.99
0 -7 -2 6.56 6.29
-7 7 -1 211.91 15.51
0 -7 -1 153.75 13.97
-7 7 0 112.53 11.95
-7 7 1 4.62 5.93
-7 7 2 445.32 23.78
-7 7 3 25.02 8.31
1 -8 -2 164.34 15.12
1 -8 -1 40 9.2
1 -8 0 151.6 14.64
1 -8 1 95.88 12.26
1 -8 2 159.05 15.36
2 -9 -2 271.41 19.77
2 -9 -1 11.45 7.61
2 -9 0 62.32 11.21
2 -9 1 18.36 8.27
2 -9 2 29.52 9.19
8 -7 -3 106.3 14.3
8 -7 -2 137.99 14.46
8 -7 -1 102.01 13.12
8 -6 -4 93.19 13.15
8 -6 -3 29.6 9.32
8 -6 -2 31.26 9.43
8 -6 -1 134.12 13.77
8 -6 0 209 15.81
8 -5 -4 81.98 12.08
-3 8 -4 83.85 11.71
-3 8 -3 179.2 15.31
8 -5 -3 187.91 16.77
8 -5 -2 102.87 12.81
-3 8 -2 123.88 12.37
-3 8 -1 5.52 5.7
8 -5 -1 8.4 7.75
-3 8 0 16.69 7.17
8 -5 0 31.5 8.01
-3 8 1 42.57 8.83
-3 8 2 65.57 11.04
-3 8 3 37.93 9.87
-4 8 -4 102.58 12.71
-4 8 -3 69.2 10.87
8 -4 -2 29.54 8.61
-4 8 -2 42.62 8.66
8 -4 -1 2.72 6.75
-4 8 -1 16.29 6.9
-4 8 0 68.73 10.22
-4 8 1 26.76 7.79
-4 8 2 413.67 23.97
-4 8 3 90.33 12.32
8 -3 -4 103.38 13.12
-5 8 -4 90.02 12.45
-5 8 -3 160.41 15.38
-5 8 -2 31.83 8.38
-5 8 -1 51.56 9.23
-5 8 0 280.79 18.58
-5 8 1 62.1 9.86
-5 8 2 11.9 7.27
-5 8 3 109.68 13.41
-6 8 -4 60.94 11.11
-6 8 -3 101.86 12.7
-6 8 -2 34.69 9
-6 8 -1 57.99 10.09
-6 8 0 15.13 7.4
-6 8 1 46.71 9.26
-6 8 2 215.12 17.9
-6 8 3 4.56 7.15
-7 8 -3 33.69 10.04
-7 8 -2 218.35 17.57
-7 8 -1 101.31 12.6
-1 -7 -1 127.75 13.66
-7 8 0 21.66 7.77
-7 8 1 63.98 10.61
-7 8 2 13.18 7.91
-7 8 3 -1.14 7.48
-8 8 -2 108.04 13.09
-8 8 -1 13.45 7.86
0 -8 -1 30.22 8.91
-8 8 0 87.25 11.91
0 -8 0 101.41 12.98
9 -7 -2 41.53 10.51
9 -7 -1 27.44 9.26
9 -6 -2 272.81 20.2
9 -6 -1 29.44 8.88
-3 9 2 208.61 18.4
-4 9 -3 30.01 8.73
9 -5 -2 30.52 9.68
-4 9 -2 26.96 8.47
-4 9 -1 148.14 14.71
9 -5 -1 129.96 13.79
-4 9 0 78.43 11.31
-4 9 1 37.7 9.05
-4 9 2 4.6 7.56
-4 9 3 78.62 12.67
-5 9 -3 85.82 12.37
-5 9 -2 68.88 11.27
-5 9 -1 21.96 8.13
-5 9 0 214.46 17.6
-5 9 1 18.17 8.18
-5 9 2 18.95 8.53
-5 9 3 7.37 7.32
-6 9 -2 52.16 10.52
-6 9 -1 174.73 16.26
-6 9 0 62.66 10.79
-6 9 1 3.48 7.09
-6 9 2 453.53 26.35
-7 9 -2 30.3 9.64
-7 9 -1 53.77 10.75
-7 9 0 64.65 11.22
-7 9 1 15.24 8.2
-7 9 2 43.59 10.51
-1 -8 -1 4.51 7.4
-8 9 0 65.53 11.35
-8 9 1 8.22 7.46
