#------------------------------------------------------------------------------
#$Date: 2015-06-18 10:03:41 +0300 (Thu, 18 Jun 2015) $
#$Revision: 139315 $
#$URL: svn://www.crystallography.net/cod/cif/7/22/07/7220791.cif $
#------------------------------------------------------------------------------
#
# This file is available in the Crystallography Open Database (COD),
# http://www.crystallography.net/
#
# All data on this site have been placed in the public domain by the
# contributors.
#
data_7220791
loop_
_publ_author_name
'Kumar, Binay'
'Dalal, Jyoti'
'Sinha, Nidhi'
'Yadav, Harsh'
_publ_section_title
;
 Structural, electrical, ferroelectric and mechanical properties with
 Hirshfeld surface analysis of novel NLO semiorganic sodium
 p-nitrophenolate dihydrate piezoelectric single crystal
;
_journal_name_full               'RSC Adv.'
_journal_paper_doi               10.1039/C5RA10501C
_journal_year                    2015
_chemical_formula_moiety         'C6 H8 N Na O5'
_chemical_formula_sum            'C6 H8 N Na O5'
_chemical_formula_weight         197.12
_space_group_crystal_system      orthorhombic
_space_group_IT_number           46
_space_group_name_Hall           'I 2 -2a'
_space_group_name_H-M_alt        'I m a 2'
_symmetry_space_group_name_Hall  'I 2 -2a'
_symmetry_space_group_name_H-M   'I m a 2'
_atom_sites_solution_hydrogens   mixed
_atom_sites_solution_primary     direct
_audit_creation_date             2015-05-30
_audit_creation_method
;
Olex2 1.2
(compiled 2015.01.26 svn.r3150 for OlexSys, GUI svn.r4998)
;
_audit_update_record
;
2015-06-01 deposited with the CCDC.
2015-06-17 downloaded from the CCDC.
;
_cell_angle_alpha                90
_cell_angle_beta                 90
_cell_angle_gamma                90
_cell_formula_units_Z            4
_cell_length_a                   6.8849(6)
_cell_length_b                   19.6618(16)
_cell_length_c                   6.4413(5)
_cell_measurement_temperature    293(2)
_cell_volume                     871.96(12)
_computing_molecular_graphics    'Olex2 (Dolomanov et al., 2009)'
_computing_publication_material  'Olex2 (Dolomanov et al., 2009)'
_computing_structure_refinement  'ShelXL (Sheldrick, 2008)'
_computing_structure_solution    'ShelXS (Sheldrick, 2008)'
_diffrn_ambient_temperature      293(2)
_diffrn_measured_fraction_theta_full 0.996
_diffrn_measured_fraction_theta_max 0.888
_diffrn_measurement_device_type  'Xcalibur, Sapphire3'
_diffrn_radiation_type           MoK\a
_diffrn_radiation_wavelength     0.71073
_diffrn_reflns_av_R_equivalents  0.0214
_diffrn_reflns_av_unetI/netI     0.0188
_diffrn_reflns_laue_measured_fraction_full 0.996
_diffrn_reflns_laue_measured_fraction_max 0.888
_diffrn_reflns_limit_h_max       8
_diffrn_reflns_limit_h_min       -9
_diffrn_reflns_limit_k_max       26
_diffrn_reflns_limit_k_min       -26
_diffrn_reflns_limit_l_max       8
_diffrn_reflns_limit_l_min       -8
_diffrn_reflns_number            2595
_diffrn_reflns_point_group_measured_fraction_full 0.984
_diffrn_reflns_point_group_measured_fraction_max 0.845
_diffrn_reflns_theta_full        25.242
_diffrn_reflns_theta_max         29.302
_diffrn_reflns_theta_min         3.328
_exptl_absorpt_coefficient_mu    0.171
_exptl_absorpt_correction_T_max  1.00000
_exptl_absorpt_correction_T_min  0.66530
_exptl_absorpt_correction_type   multi-scan
_exptl_absorpt_process_details
;
CrysAlisPro, Agilent Technologies,
Version 1.171.36.32 (release 02-08-2013 CrysAlis171 .NET)
(compiled Aug  2 2013,16:46:58)
Empirical absorption correction using spherical harmonics,
 implemented in SCALE3 ABSPACK scaling algorithm.
;
_exptl_crystal_colour            Yellow
_exptl_crystal_density_diffrn    1.502
_exptl_crystal_description       Block
_exptl_crystal_F_000             408
_exptl_crystal_size_max          0.5
_exptl_crystal_size_mid          0.5
_exptl_crystal_size_min          0.5
_refine_diff_density_max         0.161
_refine_diff_density_min         -0.294
_refine_diff_density_rms         0.071
_refine_ls_abs_structure_details
;
 Flack x determined using 444 quotients [(I+)-(I-)]/[(I+)+(I-)]
 (Parsons, Flack and Wagner, Acta Cryst. B69 (2013) 249-259).
;
_refine_ls_abs_structure_Flack   0.10(17)
_refine_ls_extinction_coef       0.46(2)
_refine_ls_extinction_expression Fc^*^=kFc[1+0.001xFc^2^\l^3^/sin(2\q)]^-1/4^
_refine_ls_extinction_method     'SHELXL-2014/7 (Sheldrick 2014'
_refine_ls_goodness_of_fit_ref   1.050
_refine_ls_hydrogen_treatment    mixed
_refine_ls_matrix_type           full
_refine_ls_number_parameters     85
_refine_ls_number_reflns         1087
_refine_ls_number_restraints     1
_refine_ls_restrained_S_all      1.050
_refine_ls_R_factor_all          0.0294
_refine_ls_R_factor_gt           0.0289
_refine_ls_shift/su_max          0.002
_refine_ls_shift/su_mean         0.000
_refine_ls_structure_factor_coef Fsqd
_refine_ls_weighting_details
'w=1/[\s^2^(Fo^2^)+(0.0500P)^2^+0.1360P] where P=(Fo^2^+2Fc^2^)/3'
_refine_ls_weighting_scheme      calc
_refine_ls_wR_factor_gt          0.0723
_refine_ls_wR_factor_ref         0.0727
_reflns_Friedel_coverage         0.753
_reflns_friedel_fraction_full    0.969
_reflns_friedel_fraction_max     0.794
_reflns_number_gt                1065
_reflns_number_total             1087
_reflns_threshold_expression     'I > 2\s(I)'
_iucr_refine_instructions_details
;

    spnpd.res created by SHELXL-2014/7

TITL SPNPD in Ima2 #46
CELL 0.71073 6.884879 19.661775 6.441293 90 90 90
ZERR 17 0.000553 0.001617 0.000511 0 0 0
LATT -2
SYMM -X,-Y,+Z
SYMM 0.5-X,+Y,+Z
SYMM 0.5+X,-Y,+Z
SFAC C H N O Na
UNIT 17 17 17 17 1
 
L.S. 4
PLAN  20
BOND
fmap 2
acta
MERG 2
REM <olex2.extras>
REM <HklSrc "%.\\SPNPD.hkl">
REM </olex2.extras>
 
WGHT    0.050000    0.136000
EXTI    0.455070
FVAR      11.87411
NA1   5   -0.250000   -0.728429   -0.707891    10.50000    0.02792    0.03121 =
         0.02233   -0.00439    0.00000    0.00000
C5    1   -0.250000   -0.525579   -0.371584    10.50000    0.03121    0.01811 =
         0.04815   -0.00870    0.00000    0.00000
O1    4   -0.250000   -0.321751   -0.245612    10.50000    0.03110    0.01779 =
         0.02978   -0.00396    0.00000    0.00000
O2    4   -0.250000   -0.614704   -0.598888    10.50000    0.08626    0.03505 =
         0.07159   -0.02651    0.00000    0.00000
N1    3   -0.250000   -0.597174   -0.415069    10.50000    0.03521    0.02223 =
         0.06837   -0.01160    0.00000    0.00000
C3    1   -0.250000   -0.435532   -0.126361    10.50000    0.06819    0.02480 =
         0.02726   -0.00158    0.00000    0.00000
AFIX  43
H3    2   -0.250000   -0.420940    0.010978    10.50000   -1.20000
AFIX   0
C2    1   -0.250000   -0.386949   -0.285254    10.50000    0.02356    0.01846 =
         0.02675   -0.00356    0.00000    0.00000
O3    4   -0.250000   -0.638143   -0.272951    10.50000    0.06326    0.01984 =
         0.08574    0.00159    0.00000    0.00000
C1    1   -0.250000   -0.410890   -0.491080    10.50000    0.06918    0.02460 =
         0.02727   -0.00212    0.00000    0.00000
AFIX  43
H1    2   -0.250000   -0.379978   -0.600360    10.50000   -1.20000
AFIX   0
C6    1   -0.250000   -0.479800   -0.532602    10.50000    0.07644    0.03012 =
         0.03191   -0.01148    0.00000    0.00000
AFIX  43
H6    2   -0.250000   -0.495153   -0.669166    10.50000   -1.20000
AFIX   0
C4    1   -0.250000   -0.504453   -0.167397    10.50000    0.05686    0.02166 =
         0.03814    0.00190    0.00000    0.00000
AFIX  43
H4    2   -0.250000   -0.535952   -0.059689    10.50000   -1.20000
AFIX   0
O4    4   -0.006920   -0.736348   -0.962676    11.00000    0.02687    0.03508 =
         0.02826    0.00893    0.00292   -0.00051
H4A   2    0.057270   -0.711387   -1.028977    11.00000    0.03380
H4B   2    0.065178   -0.765920   -0.915146    11.00000    0.06139
HKLF 4
 
REM  SPNPD in Ima2 #46
REM R1 =  0.0289 for    1065 Fo > 4sig(Fo)  and  0.0294 for all    1087 data
REM     85 parameters refined using      1 restraints
 
END  
     
WGHT      0.0479      0.1173 

REM Highest difference peak  0.161,  deepest hole -0.294,  1-sigma level  0.071
Q1    1   0.0019 -0.6822 -0.7152  11.00000  0.05    0.16
Q2    1  -0.2500 -0.6803 -0.9635  10.50000  0.05    0.16
Q3    1  -0.0033 -0.4101 -0.2653  11.00000  0.05    0.15
Q4    1  -0.0266 -0.3501 -0.2252  11.00000  0.05    0.14
Q5    1  -0.0880 -0.3276 -0.1942  11.00000  0.05    0.13
Q6    1   0.0045 -0.4248 -0.5749  11.00000  0.05    0.13
Q7    1  -0.0171 -0.6777 -1.1892  11.00000  0.05    0.13
Q8    1  -0.1023 -0.6976 -0.9221  11.00000  0.05    0.12
Q9    1  -0.1135 -0.7009 -0.7397  11.00000  0.05    0.12
Q10   1  -0.0024 -0.4331 -0.4382  11.00000  0.05    0.12
Q11   1   0.0071 -0.8121 -0.8005  11.00000  0.05    0.11
Q12   1  -0.0297 -0.5169 -0.0806  11.00000  0.05    0.11
Q13   1  -0.0095 -0.3710 -0.3610  11.00000  0.05    0.11
Q14   1  -0.0239 -0.6325 -0.7148  11.00000  0.05    0.11
Q15   1  -0.0349 -0.6120 -0.1070  11.00000  0.05    0.11
Q16   1  -0.0327 -0.4720 -0.4813  11.00000  0.05    0.10
Q17   1  -0.1522 -0.5009 -0.8156  11.00000  0.05    0.10
Q18   1  -0.0192 -0.4587 -0.1616  11.00000  0.05    0.10
Q19   1   0.0000 -0.5000 -0.4587  10.50000  0.05    0.10
Q20   1  -0.0568 -0.4032 -0.6963  11.00000  0.05    0.10

REM The information below was added by Olex2.
REM
REM R1 = 0.0289 for 1065 Fo > 4sig(Fo) and 0.0294 for all 2644 data
REM n/a parameters refined using n/a restraints
REM Highest difference peak 0.16, deepest hole -0.29
REM Mean Shift 0, Max Shift 0.002.

REM +++ Tabular Listing of Refinement Information +++
REM R1_all = 0.0294
REM R1_gt = 0.0289
REM wR_ref = 0.0727
REM GOOF = 1.050
REM Shift_max = 0.002
REM Shift_mean = 0
REM Reflections_all = 2644
REM Reflections_gt = 1065
REM Parameters = n/a
REM Hole = -0.29
REM Peak = 0.16
REM Flack = 0.10(17)

;
_cod_data_source_file            c5ra10501c1.cif
_cod_data_source_block           spnpd
_cod_original_cell_volume        871.95(12)
_cod_database_code               7220791
_publcif_datablock.id            {50313768-ab27-4455-9264-2f39138d3d66}
_shelx_space_group_comment
;
The symmetry employed for this shelxl refinement is uniquely defined
by the following loop, which should always be used as a source of
symmetry information in preference to the above space-group names.
They are only intended as comments.
;
loop_
_space_group_symop_operation_xyz
'x, y, z'
'-x, -y, z'
'-x+1/2, y, z'
'x+1/2, -y, z'
'x+1/2, y+1/2, z+1/2'
'-x+1/2, -y+1/2, z+1/2'
'-x+1, y+1/2, z+1/2'
'x+1, -y+1/2, z+1/2'
loop_
_atom_site_label
_atom_site_type_symbol
_atom_site_fract_x
_atom_site_fract_y
_atom_site_fract_z
_atom_site_U_iso_or_equiv
_atom_site_adp_type
_atom_site_occupancy
_atom_site_site_symmetry_order
_atom_site_calc_flag
_atom_site_refinement_flags_posn
_atom_site_refinement_flags_adp
_atom_site_refinement_flags_occupancy
Na1 Na -0.2500 -0.72843(5) -0.70789(15) 0.0272(3) Uani 1 2 d S T P
C5 C -0.2500 -0.52558(12) -0.3716(5) 0.0325(6) Uani 1 2 d S T P
O1 O -0.2500 -0.32175(8) -0.2456(2) 0.0262(4) Uani 1 2 d S T P
O2 O -0.2500 -0.61470(14) -0.5989(5) 0.0643(8) Uani 1 2 d S T P
N1 N -0.2500 -0.59717(11) -0.4151(5) 0.0419(6) Uani 1 2 d S T P
C3 C -0.2500 -0.43553(15) -0.1264(4) 0.0401(7) Uani 1 2 d S T P
H3 H -0.2500 -0.4209 0.0110 0.048 Uiso 1 2 calc RS T P
C2 C -0.2500 -0.38695(11) -0.2853(4) 0.0229(5) Uani 1 2 d S T P
O3 O -0.2500 -0.63814(10) -0.2730(5) 0.0563(8) Uani 1 2 d S T P
C1 C -0.2500 -0.41089(15) -0.4911(4) 0.0404(7) Uani 1 2 d S T P
H1 H -0.2500 -0.3800 -0.6004 0.048 Uiso 1 2 calc RS T P
C6 C -0.2500 -0.47980(16) -0.5326(5) 0.0462(8) Uani 1 2 d S T P
H6 H -0.2500 -0.4952 -0.6692 0.055 Uiso 1 2 calc RS T P
C4 C -0.2500 -0.50445(14) -0.1674(4) 0.0389(7) Uani 1 2 d S T P
H4 H -0.2500 -0.5360 -0.0597 0.047 Uiso 1 2 calc RS T P
O4 O -0.00692(18) -0.73635(7) -0.96268(19) 0.0301(3) Uani 1 1 d . . .
H4A H 0.057(4) -0.7114(14) -1.029(4) 0.034(6) Uiso 1 1 d . . .
H4B H 0.065(5) -0.7659(16) -0.915(5) 0.061(9) Uiso 1 1 d . . .
loop_
_atom_site_aniso_label
_atom_site_aniso_U_11
_atom_site_aniso_U_22
_atom_site_aniso_U_33
_atom_site_aniso_U_23
_atom_site_aniso_U_13
_atom_site_aniso_U_12
Na1 0.0279(5) 0.0312(5) 0.0223(4) -0.0044(4) 0.000 0.000
C5 0.0312(12) 0.0181(10) 0.0481(18) -0.0087(10) 0.000 0.000
O1 0.0311(7) 0.0178(7) 0.0298(9) -0.0040(6) 0.000 0.000
O2 0.086(2) 0.0351(12) 0.0716(17) -0.0265(13) 0.000 0.000
N1 0.0352(11) 0.0222(11) 0.0684(16) -0.0116(13) 0.000 0.000
C3 0.068(2) 0.0248(13) 0.0273(11) -0.0016(10) 0.000 0.000
C2 0.0236(9) 0.0185(9) 0.0267(10) -0.0036(9) 0.000 0.000
O3 0.0633(14) 0.0198(8) 0.086(2) 0.0016(11) 0.000 0.000
C1 0.0692(19) 0.0246(12) 0.0273(12) -0.0021(10) 0.000 0.000
C6 0.076(2) 0.0301(14) 0.0319(13) -0.0115(12) 0.000 0.000
C4 0.0569(17) 0.0217(11) 0.0381(15) 0.0019(11) 0.000 0.000
O4 0.0269(6) 0.0351(6) 0.0283(6) 0.0089(5) 0.0029(5) -0.0005(5)
loop_
_atom_type_symbol
_atom_type_description
_atom_type_scat_dispersion_real
_atom_type_scat_dispersion_imag
_atom_type_scat_source
C C 0.0033 0.0016 'International Tables Vol C Tables 4.2.6.8 and 6.1.1.4'
H H 0.0000 0.0000 'International Tables Vol C Tables 4.2.6.8 and 6.1.1.4'
N N 0.0061 0.0033 'International Tables Vol C Tables 4.2.6.8 and 6.1.1.4'
O O 0.0106 0.0060 'International Tables Vol C Tables 4.2.6.8 and 6.1.1.4'
Na Na 0.0362 0.0249 'International Tables Vol C Tables 4.2.6.8 and 6.1.1.4'
loop_
_geom_angle_atom_site_label_1
_geom_angle_atom_site_label_2
_geom_angle_atom_site_label_3
_geom_angle
_geom_angle_site_symmetry_1
_geom_angle_site_symmetry_3
Na1 Na1 Na1 150.49(6) 6_435 6_434
O2 Na1 Na1 87.32(9) . 6_435
O2 Na1 Na1 122.19(9) . 6_434
O2 Na1 O3 171.64(12) . 6_434
O2 Na1 O4 105.82(7) . 3_455
O2 Na1 O4 105.82(7) . .
O2 Na1 O4 94.48(7) . 8_435
O2 Na1 O4 94.48(7) . 6_435
O3 Na1 Na1 84.32(8) 6_434 6_435
O3 Na1 Na1 66.17(8) 6_434 6_434
O4 Na1 Na1 124.21(4) 6_435 6_434
O4 Na1 Na1 46.17(3) . 6_434
O4 Na1 Na1 131.20(4) 3_455 6_435
O4 Na1 Na1 131.20(4) . 6_435
O4 Na1 Na1 124.21(4) 8_435 6_434
O4 Na1 Na1 46.17(3) 3_455 6_434
O4 Na1 Na1 44.85(3) 6_435 6_435
O4 Na1 Na1 44.85(3) 8_435 6_435
O4 Na1 O3 79.88(6) 3_455 6_434
O4 Na1 O3 79.88(6) . 6_434
O4 Na1 O3 79.58(7) 6_435 6_434
O4 Na1 O3 79.58(7) 8_435 6_434
O4 Na1 O4 86.79(4) 3_455 6_435
O4 Na1 O4 88.28(7) 8_435 6_435
O4 Na1 O4 159.42(4) . 6_435
O4 Na1 O4 90.86(7) 3_455 .
O4 Na1 O4 86.79(4) . 8_435
O4 Na1 O4 159.42(4) 3_455 8_435
C6 C5 N1 119.7(3) . .
C6 C5 C4 121.5(2) . .
C4 C5 N1 118.8(3) . .
N1 O2 Na1 123.7(2) . .
O2 N1 C5 117.5(3) . .
O3 N1 C5 120.1(3) . .
O3 N1 O2 122.4(3) . .
C4 C3 C2 122.0(3) . .
O1 C2 C3 121.8(2) . .
O1 C2 C1 120.8(2) . .
C3 C2 C1 117.4(2) . .
N1 O3 Na1 140.4(2) . 6_435
C6 C1 C2 120.7(2) . .
C5 C6 C1 119.8(2) . .
C5 C4 C3 118.6(2) . .
Na1 O4 Na1 88.98(4) . 6_434
loop_
_geom_bond_atom_site_label_1
_geom_bond_atom_site_label_2
_geom_bond_distance
_geom_bond_site_symmetry_2
Na1 Na1 3.3305(5) 6_434
Na1 Na1 3.3305(5) 6_435
Na1 O2 2.344(3) .
Na1 O3 2.657(2) 6_434
Na1 O4 2.3491(14) .
Na1 O4 2.4032(14) 6_435
Na1 O4 2.4032(14) 8_435
Na1 O4 2.3491(14) 3_455
C5 N1 1.435(3) .
C5 C6 1.373(4) .
C5 C4 1.379(4) .
O1 C2 1.307(2) .
O2 N1 1.233(4) .
N1 O3 1.219(4) .
C3 C2 1.400(4) .
C3 C4 1.381(4) .
C2 C1 1.407(3) .
O3 Na1 2.657(2) 6_435
C1 C6 1.381(4) .
O4 Na1 2.4032(14) 6_434
loop_
_refln_index_h
_refln_index_k
_refln_index_l
_refln_F_squared_meas
_refln_F_squared_sigma
_refln_scale_group_code
0 0 -8 7547.73 478.941 1
0 0 -6 2832.06 269.404 1
0 0 -4 269976 3640.05 1
0 0 -2 18080 365.38 2
0 0 2 18254.4 359.08 5
0 0 2 18938.4 353.961 2
0 0 4 272208 3541.22 5
0 0 6 2903.29 245.2 5
0 0 8 7925.16 483.797 5
0 -1 -7 7752.34 466.002 1
0 1 -7 7025.8 427.662 1
0 1 -5 9314.69 416.858 1
0 -1 -5 9371.8 432.322 1
0 1 -3 32614.6 636.236 2
0 -1 -3 32133.7 616.209 2
0 1 -1 312134 3729.07 1
0 1 3 31517.8 564.855 2
0 1 3 31832.5 595.378 5
0 -1 3 31294.9 593.539 5
0 1 5 9241.69 378.533 5
0 -1 5 9732.2 385.602 5
0 1 7 8079.4 430.43 5
0 -1 7 7636.52 418.847 5
0 2 -8 35607.3 1042.87 1
0 -2 -8 36619.9 1105.82 1
0 -2 -8 36093.6 1204.24 6
0 -2 -6 10122.8 511.183 1
0 2 -6 9899.01 475.754 1
0 2 -4 322412 4212.08 1
0 2 -2 87909.4 1260 1
0 -2 -2 88505.3 1205.13 2
0 2 -2 91128.6 1255.52 2
0 -2 2 86102.3 1182.85 5
0 2 2 88506.8 1165.82 2
0 2 2 85751.6 1181.75 5
0 2 4 320820 4057.7 2
0 2 4 325310 4163.83 5
0 -2 4 332548 4169.34 5
0 2 6 8609.61 414.861 5
0 -2 6 9038.6 418.951 5
0 2 8 34834.9 992.984 5
0 -2 8 36083.8 1004.24 5
0 3 -7 6764.96 420.104 1
0 -3 -7 6693.97 470.889 6
0 -3 -7 6261.45 421.034 1
0 3 -5 49445.2 1050.04 1
0 -3 -3 280223 3567.2 2
0 3 -3 291447 3669.19 1
0 3 -1 12535.3 209.716 4
0 -3 -1 12868.8 252.281 6
0 -3 -1 12282.4 253.984 3
0 3 1 12486.2 219.513 5
0 -3 1 12668.6 225.009 4
0 3 1 12310.9 256.951 6
0 3 1 12629.2 230.472 2
0 -3 1 12965.1 269.47 1
0 -3 1 12305.8 219.12 5
0 3 1 12823.8 268.124 3
0 3 3 280470 3610.19 5
0 -3 3 280674 3613.51 5
0 -3 5 50351.7 989.517 5
0 3 5 47767.5 867.522 2
0 3 5 50111.8 988.768 5
0 3 7 6339.12 381.118 5
0 -3 7 6053.58 375.419 5
0 -4 -8 15169.1 752.079 6
0 -4 -8 14998.3 689.637 1
0 -4 -6 44925.4 1142.43 6
0 -4 -6 42653.3 1072.5 1
0 4 -6 44904.7 1044.59 1
0 -4 -4 239556 3317.48 6
0 -4 -4 239327 3168.68 2
0 4 -4 246773 3263.47 1
0 -4 -2 130991 1748.35 3
0 -4 -2 125631 1650.16 2
0 4 -2 132734 1729.2 1
0 4 -2 126481 1622.03 4
0 -4 -2 127565 1728.51 6
0 -4 0 111179 1366.28 4
0 4 0 109244 1372.16 4
0 -4 2 130136 1670.44 5
0 -4 2 127096 1787.44 1
0 4 2 125171 1663.34 5
0 4 2 128795 1670.18 2
0 4 4 243896 3257.69 5
0 -4 4 252970 3266.05 5
0 -4 6 40838 929.093 5
0 4 6 39010.7 912.587 5
0 4 8 17437.8 697.171 5
0 -4 8 17124.2 681.983 5
0 -5 -7 11327.8 582.254 6
0 -5 -7 10509.2 562.249 1
0 5 -5 36387.9 850.395 1
0 -5 -5 36395 905.494 6
0 -5 -3 15592 429.255 6
0 -5 -3 15964 359.254 2
0 5 -3 15175.1 328.623 4
0 5 -3 15294 412.125 1
0 -5 -1 248805 2932.36 3
0 -5 -1 244697 2938.36 6
0 5 1 212343 2658.39 5
0 -5 1 216793 2658.27 5
0 5 1 234689 2767.4 6
0 5 1 231838 2782.38 3
0 -5 1 233215 2698.58 4
0 5 3 15266.8 368.256 2
0 5 3 16380.2 402.318 5
0 5 5 35099.5 784.135 5
0 5 5 32770 664.614 2
0 -5 5 34870.9 777.927 5
0 -5 7 10297.2 478.593 5
0 5 7 11321.9 498.396 5
0 -6 -6 24293.6 782.939 6
0 6 -4 110315 1546.82 4
0 -6 -4 114323 1616.05 2
0 -6 -4 114691 1778.49 6
0 -6 -2 294808 3638.44 6
0 6 -2 292527 3510.52 4
0 6 0 224472 2744.93 4
0 -6 0 223960 2728.2 4
0 -6 2 290802 3485.53 5
0 6 2 277880 3593.34 6
0 6 2 288023 3483.31 5
0 6 2 280304 3509.22 2
0 6 4 112249 1622.81 2
0 6 4 117464 1708.87 5
0 -6 4 117754 1706.36 5
0 6 6 22226.7 652.273 5
0 -6 6 21383.2 630.517 5
0 -7 -7 7216.51 457.107 6
0 -7 -5 32430.7 821.246 6
0 7 -3 161805 2035.1 4
0 -7 -3 159877 2221.69 6
0 -7 -1 265160 3389.22 4
0 7 -1 270245 3326.36 4
0 -7 1 257620 3101.23 5
0 -7 1 269430 3180.61 4
0 7 1 283474 3282.33 6
0 7 1 251890 3100.78 5
0 7 1 270049 3290.75 3
0 7 3 159892 2134.32 2
0 7 3 159000 2125.64 5
0 -7 3 160412 2126.45 5
0 -7 5 32198.5 728.961 5
0 7 5 31164.5 726.223 5
0 7 7 7178.08 397.453 5
0 -7 7 7239.91 398.758 5
0 -8 -6 4993.02 344.816 6
0 8 -4 21584.4 420.454 4
0 -8 -4 22573.2 592.19 6
0 -8 -2 17294.9 407.494 6
0 8 -2 16809 319.861 4
0 -8 0 383083 4607.71 4
0 8 2 16404 428.396 6
0 -8 2 16323.2 372.491 4
0 8 2 16229.7 454.673 3
0 8 2 17177.6 339.808 5
0 -8 2 16498.8 333.682 5
0 8 2 16816.1 386.987 2
0 8 4 22380 538.206 5
0 8 4 21489.1 496.932 2
0 -8 4 22606.8 538.5 5
0 8 6 4320.09 289.5 5
0 -8 6 4672.44 300.408 5
0 -9 -7 9318.8 504.468 6
0 -9 -7 9508.29 437.447 4
0 -9 -5 32063.4 805.586 6
0 -9 -3 114049 1677.39 6
0 9 -3 114631 1503.09 4
0 9 -1 194370 2338.36 4
0 -9 -1 183514 2381.8 4
0 -9 1 180249 2304.66 4
0 9 1 178859 2413.53 3
0 9 1 186611 2418.14 6
0 9 3 116019 1668.76 2
0 -9 3 117171 1612.26 5
0 9 3 114716 1607.93 5
0 9 5 30998.5 649.725 2
0 9 5 32157.3 731.998 5
0 -9 5 31563.5 719.706 5
0 9 7 10003.3 487.953 5
0 -9 7 9509.31 469.375 5
0 -10 -8 8429.87 454.586 4
0 -10 -6 1135.43 177.666 4
0 -10 -6 963.992 183.335 6
0 -10 -4 6998.4 316.352 6
0 10 -2 5417.93 179.195 4
0 -10 -2 5213.4 233.08 4
0 -10 0 19042.1 398.8 4
0 10 0 19033.6 403.171 3
0 -10 2 5121.21 210.98 4
0 10 2 5115.96 166.749 5
0 10 2 4864.88 263.204 3
0 -10 4 6955.54 280.642 5
0 10 4 7215.24 286.829 5
0 10 4 7410.85 291.352 2
0 -10 6 1532.45 189.869 5
0 10 6 1390.89 194.725 5
0 -11 -7 14685.7 568.607 4
0 -11 -5 57316.8 1128.94 4
0 -11 -5 57192.1 1135.97 6
0 -11 -3 186680 2562.72 4
0 -11 -1 216861 2801.2 4
0 -11 1 221065 2724.47 4
0 11 1 203503 2832.65 3
0 11 3 183446 2540.77 2
0 -11 3 184331 2409.05 5
0 11 3 188558 2416.04 5
0 -11 5 55591.3 1041.65 5
0 11 5 56243.8 1054.65 5
0 -12 -6 10284.5 462.545 6
0 -12 -6 9865.46 447.19 4
0 -12 -4 85533.7 1446.91 4
0 -12 -4 87192 1447.37 6
0 -12 -2 30047.4 643.795 4
0 -12 0 45422.8 766.11 4
0 12 0 43682.2 770.136 3
0 12 2 30958.4 740.788 3
0 -12 2 30902.8 620.617 4
0 12 4 88641.2 1347.91 5
0 -12 4 85257.3 1331.49 5
0 12 4 84239.5 1393.96 2
0 -12 6 11128.4 455.83 5
0 -13 -7 4216.26 329.554 4
0 -13 -5 39221.9 900.944 6
0 -13 -5 40511.7 925.339 4
0 -13 -3 36641.5 781.723 4
0 -13 -1 138534 1934.22 4
0 -13 1 134285 1853.27 4
0 13 1 136230 1986.68 3
0 13 3 36056.9 777.147 2
0 -13 5 41187.9 867.41 5
0 -14 -6 5102.27 339.689 4
0 -14 -4 7134.76 351.755 4
0 -14 -2 35665 740.814 4
0 14 0 30580.4 636.224 3
0 -14 0 29546.4 610.044 4
0 -14 2 35038.5 719.939 4
0 14 2 35801.9 853.467 3
0 14 4 6908.88 321.806 2
0 -15 -5 1833.51 221.509 4
0 -15 -3 83880.5 1438.46 4
0 -15 -1 74011.9 1205.34 4
0 15 1 75757.2 1320.74 3
0 -15 1 73063 1186.41 4
0 -15 3 77646.1 1339.47 4
0 15 3 79444 1582.32 3
0 15 3 79178.2 1391.89 2
0 -16 -6 18015.6 656.212 4
0 -16 -4 5713.6 342.44 4
0 -16 -2 37260.9 797.777 4
0 -16 0 81.8651 92.1114 4
0 16 0 -38.6987 100.348 3
0 16 2 39551.9 955.525 3
0 -16 2 37878.1 803.095 4
0 -17 -5 4542.01 331.022 4
0 -17 -3 45805.6 974.293 4
0 17 -1 66919.1 1116.84 3
0 -17 -1 64596.3 1150.86 4
0 -17 1 65389.6 1135.64 4
0 17 1 64758.5 1262.22 3
0 -17 3 45404.3 975.875 4
0 17 3 45600.6 1014.16 2
0 17 3 45924.4 1168.73 3
0 -18 -4 10535.8 469.479 4
0 -18 -2 66881.6 1218.57 4
0 -18 0 10634.5 386.096 4
0 18 0 10799.1 406.809 3
0 18 2 63994.3 1362.24 3
0 -18 2 65032.6 1195.82 4
0 -19 -5 5307.2 373.811 4
0 -19 -3 22547.7 659.514 4
0 19 -1 576.231 144.381 3
0 -19 -1 653.9 166.508 4
0 -19 1 554.333 137.771 4
0 19 1 940.758 207.199 3
0 -19 3 22955.6 686.374 4
0 19 3 24240.5 854.572 3
0 -20 -4 5257.08 354.572 4
0 -20 -2 8775.51 403.812 4
0 -20 0 36208.5 828.283 4
0 20 0 37955.5 888.221 3
0 -20 2 8967.85 402.011 4
0 20 2 9876.64 507.588 3
0 -21 -3 917.995 185.955 4
0 -21 -1 9590.66 409.003 4
0 21 -1 9730.95 402.034 3
0 -21 1 9372.74 410.475 4
0 21 1 10583.7 504.566 3
0 -22 -2 12115.9 485.209 4
0 22 -2 11590.6 430.277 3
0 -22 0 16555.4 548.707 4
0 22 0 16608.2 603.284 3
0 -22 2 11143 478.234 4
0 22 2 11498.1 579.096 3
0 -23 -3 15448.9 588.972 4
0 -23 -1 3572.66 289.086 4
0 23 -1 3344.2 271.379 3
0 23 1 3758.61 337.068 3
0 -23 1 3371.38 278.234 4
0 -24 -2 3325.78 294.794 4
0 24 0 39346.9 1034.71 3
0 -24 0 36027.2 923.831 4
0 24 2 2679.97 335.121 3
0 -25 -1 18701.6 656.856 4
0 25 1 19498.8 773.719 3
0 -25 1 18413.1 668.264 4
0 -26 0 259.319 184.199 4
1 0 -7 116.779 155.743 1
-1 0 -7 78.5724 187.304 1
-1 0 -5 -361.215 207.825 1
1 0 -5 770.106 134.615 1
-1 0 -3 154.937 47.6743 2
1 0 -3 258.093 72.1055 1
1 0 -1 731.972 38.0634 4
1 0 -1 451.623 62.1983 2
-1 0 1 678.805 33.7592 4
-1 0 1 494.133 63.3503 2
1 0 1 669.91 45.3217 3
-1 0 1 468.216 35.5849 1
-1 0 3 -4.49311 54.8068 2
-1 0 3 89.9906 64.4097 5
-1 0 5 146.027 128.401 5
-1 0 5 56.6538 88.6679 2
1 0 5 57.1799 126.473 5
1 0 7 81.3197 154.94 5
-1 -1 -8 13151.8 744.955 6
-1 -1 -8 12923.2 667.654 1
-1 1 -8 12898.8 661.43 1
-1 -1 -6 27658.5 876.966 1
-1 1 -6 26390.5 843.256 1
1 -1 -6 25920 742.24 1
1 1 -6 27364.6 745.208 1
1 -1 -4 53866 959.701 1
-1 1 -4 50910.3 1055.57 1
-1 -1 -4 50654.8 869.91 2
1 1 -4 53009.7 947.089 1
1 -1 -2 44124 663.788 1
1 1 -2 44056 659.337 1
1 -1 -2 43050.9 688.358 5
1 -1 -2 44046.6 768.501 2
1 1 -2 43313 565.437 4
-1 -1 -2 44573.5 685.816 3
1 -1 -2 43449.2 608.548 4
1 1 -2 43462.9 767.211 2
1 1 -2 43824.3 690.598 5
-1 -1 -2 44145.1 603.812 2
-1 1 2 43774.8 758.47 2
-1 -1 2 45970.5 774.214 2
-1 -1 2 43928.9 710.159 1
-1 1 4 51396.5 949.043 2
-1 1 4 49630.3 895.335 5
-1 -1 4 51296.3 949.768 2
-1 -1 4 48983.8 894.996 5
1 -1 6 26289.4 746.512 5
1 1 6 27497.7 762.678 5
1 -1 8 13840.7 635.627 5
1 1 8 13828.2 639.785 5
-1 -2 -7 2644.71 328.311 1
1 -2 -7 2424.1 260.884 1
-1 2 -7 2361.76 300.79 1
-1 -2 -7 2593.23 338.114 6
-1 2 -5 26918.5 789.668 1
1 -2 -5 26564.9 696.649 1
1 2 -5 28845.9 700.587 1
-1 2 -3 106902 1661.75 1
-1 -2 -3 109797 1430.24 2
1 -2 -3 106940 1530.43 1
1 2 -3 107797 1513.32 1
-1 -2 -1 165171 2059.97 6
1 2 -1 177993 2089.03 2
-1 -2 -1 173552 1961.05 3
1 -2 -1 162247 2061.72 2
1 2 1 170020 1997.6 3
-1 -2 1 177128 2084.97 2
-1 2 1 173697 2106.11 2
-1 2 3 107662 1602.33 2
-1 -2 3 111139 1618.22 2
-1 2 3 108720 1527.27 5
-1 -2 3 107992 1526.12 5
-1 -2 5 26711.5 665.67 5
-1 2 5 25176.9 653.509 2
-1 2 5 25540 651.896 5
1 2 5 27674.7 700.573 5
1 -2 5 27580.6 698.95 5
1 2 7 2384.65 286.879 5
1 -2 7 2393.35 277.189 5
-1 -3 -8 1910.26 343.837 6
-1 -3 -8 1485.48 282.379 1
-1 3 -8 1851.51 277.721 1
-1 3 -6 16336.1 651.675 1
1 -3 -6 15402.8 443.617 4
-1 -3 -6 17415.9 714.368 6
1 -3 -6 16096.6 582.384 1
1 -3 -4 90208.2 1446.9 1
-1 3 -4 91049.4 1570.75 1
-1 -3 -4 92925.2 1319.13 2
-1 -3 -4 94421.2 1621.64 6
1 3 -2 128643 1747.88 2
1 -3 -2 120520 1709.8 2
1 -3 -2 123900 1576.62 4
1 -3 -2 120070 1616.11 5
-1 -3 -2 126535 1637.73 3
1 3 -2 122354 1622.66 5
-1 -3 -2 118239 1722.32 6
-1 3 -2 124274 1737.04 1
1 -3 0 50060.2 642.296 3
-1 3 0 53801.2 703.561 4
-1 -3 0 47646.8 694.69 2
1 -3 0 54841.5 728.689 4
1 3 0 47005.1 705.982 2
1 -3 0 50433 675.761 1
-1 -3 2 123354 1679.39 1
-1 3 2 123523 1734.53 2
-1 -3 2 127946 1731.93 2
1 3 2 124289 1696.67 3
-1 3 4 89548.9 1445.35 2
-1 -3 4 91579 1407.41 5
-1 3 4 91403.8 1406.16 5
-1 3 6 14534.7 496.485 2
1 -3 6 16251.6 584.371 5
1 3 6 16267.2 583.361 5
1 3 8 2125.63 293.527 5
-1 -4 -7 6750.64 485.739 6
1 -4 -7 6269.51 392.052 1
-1 4 -7 6347.25 426.772 1
-1 -4 -7 5997.53 451.542 1
1 -4 -7 6608.99 440.04 6
-1 4 -5 106877 1837.05 1
-1 -4 -5 106970 1909.7 6
1 -4 -5 103371 1558.56 4
1 -4 -5 105193 1734.02 1
-1 -4 -3 39703.4 571.242 2
1 -4 -3 38581 656.306 4
-1 4 -3 38731.5 797.281 1
1 -4 -3 39799.9 707.075 6
-1 -4 -3 38382.2 808.076 6
-1 4 -1 115741 1512.78 4
1 4 -1 115848 1564.92 2
-1 4 -1 112780 1517.66 1
-1 -4 -1 117825 1553.64 6
1 4 1 115764 1582.9 6
1 4 1 115695 1389.11 2
-1 -4 1 118882 1543.94 2
-1 4 1 112789 1482.49 4
1 4 1 115584 1490.12 3
1 -4 1 114901 1560.88 1
-1 -4 1 113036 1375.22 4
-1 4 1 114063 1400.41 6
-1 4 1 113650 1561.61 2
-1 4 3 39617.4 773.485 2
-1 4 5 104096 1660.64 5
1 -4 5 106536 1702.89 5
-1 4 5 103453 1666.84 2
1 4 5 107193 1714.66 5
-1 -4 5 101744 1652.96 5
1 -4 7 6562.21 414.303 5
1 4 7 6730.66 418.665 5
-1 5 -8 4745.62 396.109 1
-1 -5 -8 3483.08 408.45 1
-1 -5 -8 4234.27 434.309 6
-1 5 -6 22874 757.019 1
-1 -5 -6 23586.7 820.948 6
1 -5 -6 25252.7 763.641 1
1 -5 -6 23469.3 601.412 4
1 -5 -6 24778.4 762.586 6
-1 -5 -4 70996.6 1308.83 6
-1 -5 -4 69007.1 972.42 2
1 -5 -4 69591 1190.09 6
1 -5 -4 69861.6 1082.33 4
1 5 -4 66222.5 907.362 4
-1 5 -4 71323.7 1274.26 1
1 -5 -2 155947 1938.1 6
1 5 -2 159094 1999.92 5
-1 -5 -2 152802 2108.97 6
1 -5 -2 149943 2061.62 2
1 -5 -2 151997 1974.91 4
-1 5 -2 154795 2080.23 1
1 -5 -2 151619 1989.96 5
-1 5 -2 154179 2026.89 4
1 -5 0 1828.85 94.0277 4
-1 5 0 1900.35 77.4816 3
-1 5 0 2477.39 102.76 4
1 -5 0 2290.53 73.2894 3
1 5 0 1712.03 91.0745 2
1 5 2 154168 2070.79 3
-1 5 2 151662 2094.43 2
-1 5 4 70347.6 1206.1 2
1 5 4 68419.6 1160.68 5
-1 -5 4 69368.6 1147.61 5
1 -5 4 69807.7 1160.81 5
-1 5 6 21885.9 628.687 2
1 -5 6 24394.4 720.629 5
1 5 6 23315.2 713.724 5
-1 -6 -7 3224.06 350.986 6
-1 6 -7 3400.55 326.855 1
1 -6 -7 2877.05 238.503 4
1 -6 -5 26188.4 687.102 6
1 -6 -5 25718.6 599.265 4
-1 -6 -5 26267.4 778.169 6
-1 6 -5 25417 725.642 1
1 -6 -3 166522 2191.78 4
1 6 -3 166616 1958.65 4
-1 -6 -3 162069 2349.16 6
1 -6 -3 165243 2185.93 6
-1 6 -3 167418 2325.3 1
1 -6 -1 95005.7 1303.02 3
1 -6 -1 96118.7 1291.76 4
1 6 -1 97657 1388.4 2
-1 -6 -1 97229 1371.25 6
-1 6 -1 95365 1284.25 4
-1 -6 1 95692.6 1194.77 4
-1 6 1 95959.6 1301.43 4
1 -6 1 96658.7 1364.03 1
-1 6 1 93225.9 1231.94 6
1 6 1 93354 1307.65 3
1 6 1 98417.9 1395.24 6
1 -6 1 99040.6 1353.33 4
1 6 3 154979 1934.27 2
-1 6 3 163345 2271.06 2
1 -6 5 26663 674.729 5
1 6 5 25615.5 670.469 5
1 6 7 2704.41 280.465 5
1 -6 7 2902.88 296.159 5
-1 -7 -8 1814.97 308.807 6
-1 -7 -8 1585.95 286.141 1
1 -7 -6 23235.7 613.055 4
1 -7 -6 23323.5 705.825 6
-1 -7 -6 23726.2 802.369 6
-1 7 -6 22000.5 723.439 1
-1 7 -4 25120.2 653.681 1
1 -7 -4 25159.9 584.47 6
1 7 -4 25368.6 356.935 4
-1 -7 -4 25433.2 686.025 6
1 -7 -4 24993 563.832 4
-1 -7 -2 146364 2010.63 6
1 -7 -2 143555 1915.37 4
1 -7 -2 143890 1874.13 5
1 7 -2 145132 1879.06 5
1 -7 0 221681 2696.23 4
-1 7 0 210875 2647.26 3
-1 -7 2 142566 1770.29 4
-1 7 2 142483 1878.49 6
1 7 2 143407 1776.43 2
-1 7 2 143173 2011.36 2
1 7 2 144471 2009.1 3
1 -7 4 25908.7 596.35 5
-1 7 4 25453.7 641.01 2
1 7 4 25159.3 594.546 5
1 -7 6 24629.7 721.107 5
1 7 6 25636.2 741.742 5
-1 -8 -7 15758.5 699.706 6
1 -8 -7 15037.1 529.296 4
1 -8 -5 1620.64 178.962 4
-1 8 -5 1106.41 167.793 1
1 -8 -5 1378.08 160.581 6
-1 -8 -5 1144.92 187.827 6
1 -8 -3 20633.7 482.582 4
1 8 -3 20711.7 317.822 4
1 -8 -3 20241.5 438.657 6
-1 -8 -3 19436.9 530.577 6
1 -8 -1 229333 2859.53 4
1 -8 -1 222785 2741.68 5
1 8 -1 223417 2741.41 5
1 -8 1 246418 3040.1 4
1 8 1 237804 3024.75 3
-1 8 1 243399 2960.22 6
-1 -8 1 239926 2890.98 4
-1 8 3 20283.1 539.494 2
1 8 3 19880.3 349.233 2
-1 8 5 1208.97 158.072 2
1 -8 5 1175.52 174.842 5
1 8 5 1221.98 175.423 5
1 8 7 15105.9 612.027 5
1 -8 7 14215.3 582.771 5
-1 -9 -8 7477.11 535.689 6
1 -9 -6 -75.7641 153.938 6
-1 -9 -6 -296.141 221.853 6
1 -9 -6 171.171 141.352 4
1 -9 -4 12622.7 379.144 6
-1 -9 -4 12121.2 449.085 6
1 -9 -4 12787.2 402.181 4
1 -9 -2 91378.5 1337.55 4
1 9 -2 92336.1 1261.41 5
1 -9 -2 91385.2 1257.47 5
-1 -9 -2 91004.6 1424.73 6
-1 -9 0 230242 2950.36 4
-1 9 0 233862 2951.16 3
1 -9 2 91844.8 1407.03 4
-1 -9 2 89550.7 1209 4
1 9 2 93954.9 1456.28 3
-1 9 2 92174.8 1444.56 2
-1 9 2 90023.1 1316.05 6
-1 9 4 12266.7 438.252 2
1 9 4 13548.3 416.823 5
1 -9 4 13260.6 405.41 5
1 -9 6 208.125 138.698 5
1 9 6 399.818 178.117 5
1 -10 -7 3550.96 286.96 4
-1 -10 -7 3010.04 334.778 6
1 -10 -5 4840.05 283.621 4
-1 -10 -5 4341.87 309.178 6
1 -10 -5 4608.37 259.029 6
1 -10 -3 25983 580.502 4
-1 -10 -3 26309.1 643.36 6
1 -10 -1 13569 354.485 4
1 -10 -1 14106.9 264.76 5
1 10 -1 14340.7 264.959 5
1 -10 1 12665.9 360.135 4
-1 -10 1 13781.5 296.956 4
-1 10 1 13563.3 384.001 3
1 10 1 12866.2 365.724 3
1 10 3 26869 550.331 5
1 -10 3 25915.7 537.383 5
1 10 3 27511.1 720.966 3
-1 10 3 26871.9 666.889 2
1 10 3 27258.6 492.942 2
1 -10 5 5270.32 300.786 5
1 10 5 5331.11 313.092 5
-1 10 5 4765.97 288.805 2
1 -10 7 3297.11 296.001 5
1 10 7 3920.28 337.063 5
-1 -11 -6 1144.51 207.363 6
1 -11 -6 1299.97 189.498 4
1 -11 -4 57371.5 1046.6 4
1 -11 -4 56875.8 989.778 6
-1 -11 -4 57213 1136.08 6
1 -11 -2 8935.77 312.069 4
-1 11 0 55431.7 894.804 3
-1 -11 0 56552.7 890.95 4
1 -11 0 57812.3 926.394 4
1 -11 2 8700.7 332.679 4
-1 11 2 8232.67 291.123 6
1 11 2 8743.15 360.254 3
-1 11 2 8234.34 343.26 2
1 11 2 8361.33 229.724 5
-1 -11 2 8235.56 235.384 4
-1 11 4 56954.6 1137.78 2
1 -11 4 57584.1 1021.83 5
1 11 4 59555.2 1040.02 5
1 11 6 1331.76 201.622 5
1 -11 6 1032.4 194.855 5
-1 -12 -7 7426.15 463.18 6
1 -12 -7 7749.07 412.08 4
-1 -12 -5 66730.6 1335.14 6
1 -12 -5 65220.5 1167.66 6
1 -12 -5 68532.2 1240.52 4
1 -12 -3 51295.1 941.591 4
-1 -12 -1 12938.8 368.953 4
-1 12 -1 13643.5 316.034 3
1 -12 -1 13092.3 368.934 4
1 -12 1 13281.8 387.879 4
1 12 1 12990.6 395.216 3
1 12 1 12996.9 233.167 5
-1 -12 1 13678 324.324 4
-1 12 1 13323.6 404.854 3
1 -12 3 50356.5 851.833 5
1 12 3 51302.7 1104.84 3
-1 12 3 50235.5 1037.53 2
1 12 3 52471.6 866.076 5
1 12 3 50675.8 846.838 2
1 -12 5 70020.1 1254.22 5
-1 12 5 68084.4 1324.95 2
1 12 5 69717.2 1268.39 5
1 12 7 8298.95 440.887 5
1 -12 7 7814.29 422.649 5
-1 -13 -6 3114.75 298.737 6
1 -13 -6 3224.55 279.605 4
1 -13 -4 121929 1849.94 4
-1 -13 -4 114429 1919.33 6
1 -13 -2 27603 615.148 4
-1 -13 -2 27470.3 637.282 4
1 -13 0 29101.3 617.444 4
-1 -13 0 31123.1 599.406 4
-1 13 0 30701.8 624.56 3
1 13 2 27934.7 728.095 3
1 -13 2 28538.8 491.188 5
-1 -13 2 28326.5 544.893 4
1 -13 2 27295.7 670.54 4
1 13 2 28610.5 495.112 5
1 -13 4 127461 1844.24 5
1 13 4 125356 1839.82 5
1 -13 6 3089.7 263.371 5
1 13 6 3020.44 262.619 5
1 -14 -7 13609.7 550.455 4
1 -14 -5 3295.19 272.76 4
-1 -14 -5 4007.12 317.369 6
1 -14 -3 111630 1715.96 4
-1 -14 -3 109805 1762.04 4
1 -14 -1 7446.84 290.725 4
-1 14 -1 7301.01 247.159 3
1 14 1 6914.87 311.941 3
-1 -14 1 7420.37 251.094 4
1 -14 1 6462.61 125.385 5
-1 14 1 6818.2 311.712 3
1 -14 1 7187.21 304.878 4
1 14 1 7147.23 129.616 5
-1 14 3 109052 1866.46 2
1 14 3 110205 1648.11 2
1 14 3 109702 1947.31 3
-1 -14 3 111091 1633.75 4
1 -14 3 113440 1584.35 5
1 14 5 3369.79 243.892 5
1 -14 5 3202.91 237.663 5
1 14 7 13560.2 562.673 5
1 -14 7 11984.9 510.566 5
1 -15 -6 6102.17 368.619 4
-1 -15 -6 5482.99 373.773 4
-1 -15 -6 6119.65 411.683 6
1 -15 -4 8695.53 385.766 4
-1 -15 -4 8592.3 406.736 4
-1 -15 -2 142770 2112.59 4
1 -15 -2 144279 2089.68 4
1 -15 0 38291.1 775.518 4
-1 -15 0 39666.9 748.284 4
-1 15 0 39723.7 789.715 3
1 15 0 39654.9 791.481 3
1 -15 2 150310 1878.88 5
1 15 2 146810 2327.39 3
1 -15 2 142766 2214.35 4
-1 15 2 140298 2308.68 3
-1 -15 2 146554 2032.2 4
1 15 2 152115 1886.1 5
1 15 4 8911.05 328.265 5
-1 15 4 8577.55 422.782 2
1 -15 4 9293.16 327.33 5
1 -15 6 5750.83 326.751 5
1 -16 -5 10619.3 459.057 4
-1 -16 -5 10137.8 476.637 4
1 -16 -3 28452.4 703.778 4
-1 -16 -3 28245.4 731.618 4
1 -16 -1 184397 2545.79 4
-1 -16 -1 179184 2517.48 4
-1 16 -1 182455 2444.14 3
1 -16 1 180016 2538.35 4
-1 -16 1 179918 2394.25 4
1 16 1 180196 2578.3 3
-1 -16 3 28672.3 650.689 4
-1 16 3 29338.2 814.874 2
1 16 3 29013.9 868.502 3
1 -17 -6 1918.32 256.145 4
1 -17 -4 5823.67 334.163 4
-1 -17 -4 6170.16 363.254 4
1 -17 -2 11393.1 424.235 4
-1 -17 -2 11220.9 434.669 4
-1 17 -2 11714.7 347.77 3
1 -17 0 13984 450.025 4
1 17 0 12722.1 438.197 3
-1 -17 0 12457.7 399.911 4
-1 17 0 13798.7 455.294 3
1 -17 2 11470 459.248 4
1 17 2 11923.8 523.903 3
-1 -17 2 10850.7 367.388 4
-1 17 2 11944.8 517.395 3
1 -18 -5 3562.44 306.16 4
-1 -18 -5 2668.77 282.592 4
1 -18 -3 4296.89 294.052 4
-1 -18 -3 3923.03 292.826 4
1 -18 -1 37789 832.682 4
-1 -18 -1 37246.5 806.964 4
-1 18 -1 37939.5 768.528 3
-1 -18 1 37052.1 762.947 4
1 -18 1 37987.5 860.79 4
-1 18 1 36875.3 896.433 3
1 18 1 37592.2 891.93 3
1 18 3 4114.19 356.854 3
-1 18 3 4079.91 317.688 2
-1 -19 -4 6565.75 383.516 4
1 -19 -4 6733.81 385.482 4
-1 -19 -2 11825.1 453.954 4
-1 19 -2 11940.4 378.558 3
1 -19 0 3010.34 238.266 4
-1 -19 0 2946.41 218.945 4
-1 19 0 3044.21 245.615 3
1 -19 2 11545.3 483.664 4
-1 19 2 12548.3 558.802 3
-1 -19 2 11935.7 414.848 4
1 19 2 12247.2 560.364 3
-1 -20 -3 6281.87 369.215 4
1 -20 -3 6031.51 346.489 4
-1 -20 -1 8205.74 367.371 4
-1 20 -1 8541.4 358.146 3
1 -20 -1 8127.83 381.849 4
1 20 -1 8206.77 366.933 3
1 20 1 8630.12 442.767 3
-1 -20 1 8919.08 353.169 4
-1 20 1 8489.48 428.212 3
1 -20 1 7833.27 394.626 4
-1 20 3 6699.1 430.827 2
1 20 3 6685.96 473.269 3
1 -21 -4 1013.37 234.574 4
-1 -21 -4 886.154 228.038 4
1 -21 -2 4602.44 318.456 4
-1 -21 -2 4308.64 292.999 4
-1 21 0 4841.13 309.157 3
1 -21 0 4357.41 298.572 4
-1 -21 0 4181.71 264.8 4
1 21 0 4225.58 300.127 3
1 -21 2 4124.12 324.018 4
1 21 2 4957.32 378.08 3
1 -22 -3 583.656 193.701 4
-1 -22 -3 299.296 158.67 4
-1 -22 -1 1498.98 196.75 4
1 -22 -1 1869.79 212.954 4
1 22 -1 1775.91 215.103 3
-1 -22 1 1772.01 198.525 4
1 -22 1 1075.25 198.896 4
-1 22 1 1414.61 229.409 3
1 22 1 1603.16 246.194 3
1 22 3 377.253 240.899 3
1 -23 -2 10641.3 483.327 4
-1 -23 -2 11851.5 497.215 4
1 23 -2 11011.4 458.623 3
1 -23 0 11441.5 505.23 4
-1 23 0 11421.2 506.911 3
1 23 0 10705.9 496.209 3
-1 -23 0 11410.9 460.653 4
1 -23 2 10666.7 525.874 4
1 23 2 12246.5 619.82 3
-1 -24 -1 5678.71 355.357 4
1 24 -1 5399.66 357.894 3
1 -24 -1 5828.83 385.328 4
-1 -24 1 5759.04 336.329 4
-1 24 1 5361.94 402.716 3
1 24 1 5975.97 439.615 3
1 -24 1 5466.8 390.682 4
1 25 -2 243.379 166.859 3
1 -25 0 1321.53 245.936 4
-1 -25 0 1740.18 240.279 4
1 25 0 1502.84 262.291 3
1 -25 2 52.9494 195.107 4
1 26 -1 8639.64 470.788 3
1 -26 1 8900.82 509.424 4
-2 0 -8 9423.39 668.8 6
-2 0 -8 9779.63 634.46 1
-2 0 -6 47025.2 1254.91 1
-2 0 -4 4877.8 195.089 2
2 0 -4 5419.26 165.741 4
-2 0 -2 494797 5586.63 3
2 0 -2 450808 5562.51 4
2 0 0 725210 8577.45 2
-2 0 0 717269 8579.52 2
2 0 2 484980 5695.87 3
-2 0 2 454653 5651.57 1
-2 0 4 4753.11 283.067 2
-2 0 6 45159.2 1062.34 2
2 0 6 48408.7 1079.62 5
-2 -1 -7 5406.41 480.381 6
-2 1 -7 5537.88 446.796 1
-2 -1 -7 4885.68 454.112 1
2 1 -5 6102.27 180.797 4
2 -1 -5 5868.07 204.765 4
-2 -1 -5 5694 394.598 6
2 -1 -5 5283.77 254.556 1
-2 -1 -3 20567.9 590.477 6
2 -1 -3 21075 370.249 4
-2 1 -3 20238.5 422.559 3
2 1 -3 20959.8 335.135 4
2 -1 -1 326673 4138.09 4
-2 1 -1 336523 4232.88 6
-2 -1 -1 335942 4128.28 2
2 -1 -1 365167 4321.06 2
2 1 -1 354894 4301.59 2
-2 -1 -1 356910 4249.61 6
-2 -1 1 319866 3943.55 4
-2 1 1 309703 3945.87 4
-2 -1 1 355689 4166.9 2
2 1 1 342325 4128.62 6
-2 1 1 368442 4175.13 2
-2 -1 3 20966.8 567.916 2
-2 1 3 20856.9 565.722 2
-2 -1 3 19970.4 461.928 1
-2 -1 5 5298.49 319.293 2
-2 1 5 4997.14 311.978 2
-2 1 7 4244.7 325.605 2
2 1 7 5485.34 403.324 5
2 -1 7 5312.1 398.442 5
-2 -2 -8 1871.28 350.427 1
-2 -2 -8 1575.95 340.565 6
-2 -2 -6 72101.1 1659.2 6
2 -2 -6 67266 1232.4 1
-2 2 -6 71202.7 1605.38 1
2 2 -4 19788.5 317.869 4
2 -2 -4 19989 399.955 4
2 -2 -4 19651.4 451.998 1
-2 -2 -4 18916.8 389.617 2
-2 -2 -4 20077 658.348 6
-2 -2 -2 457324 5359.68 2
-2 2 -2 456195 5357.37 3
-2 2 0 318240 4259.47 4
-2 2 0 348924 4319.53 2
-2 -2 0 321534 4275.83 2
-2 2 0 349689 4197.18 6
2 2 0 324632 4280.29 2
-2 -2 0 403782 4289.91 6
2 2 0 396009 4299.26 6
-2 2 2 483689 5702.18 2
2 2 2 497250 5498.4 3
-2 -2 4 18317.7 562.239 2
-2 2 4 19414.9 589.056 2
-2 2 6 66418 1349.1 2
2 2 6 67021.8 1340.08 5
-2 -2 6 63533.9 1325.38 2
2 -2 6 67782.1 1337.56 5
-2 -3 -7 4706.08 443.096 6
-2 3 -7 4946.59 424.975 1
2 -3 -5 82169.8 1229.2 4
2 -3 -5 81436.3 1332.76 1
-2 -3 -5 82675 1676.66 6
-2 3 -3 100950 1637.17 1
-2 -3 -3 99563.3 1252.07 2
2 -3 -3 104310 1351.34 1
2 -3 -3 101392 1367.25 4
-2 3 -3 101882 1381.03 3
-2 -3 -3 101238 1660.71 6
-2 -3 -1 88131.5 1136.28 2
2 3 -1 85000.1 1305.51 2
2 -3 -1 86722.3 1301.48 2
-2 -3 -1 85744 1267.25 6
2 -3 -1 83454.2 1188.49 4
-2 3 1 87008.3 1328.68 2
-2 -3 1 87433 1298.75 2
2 3 1 86978.8 1143.41 2
-2 3 1 85130 1163.31 4
2 3 1 86907.7 1319.69 6
-2 -3 3 103087 1626.86 2
-2 3 3 103061 1667.53 2
-2 3 5 79072.1 1484.41 2
-2 -3 5 78318.3 1453.65 2
-2 3 7 4262.14 315.615 2
2 3 7 4716.87 372.434 5
2 -3 7 4716.9 373.863 5
-2 -4 -8 1247.15 296.02 1
-2 -4 -8 1671.56 343.64 6
2 -4 -6 134289 1911.73 4
2 -4 -6 130364 2043.12 1
-2 -4 -6 133797 2457.58 6
2 -4 -4 35651.5 639.054 4
2 -4 -4 35945.9 674.404 1
-2 -4 -4 34211.1 886.499 6
-2 4 -2 267537 3418.76 1
-2 4 -2 257501 3098.82 3
2 -4 -2 247384 3071.37 1
-2 -4 -2 263521 3430.08 6
2 -4 -2 243231 3207.88 4
2 -4 0 283299 3220.29 4
-2 4 0 231554 3016.55 1
-2 -4 0 226192 3114.8 2
2 4 0 233880 3138.34 2
-2 4 0 271757 3144.12 4
2 4 0 303913 3221.83 6
2 4 2 276211 3404.59 3
-2 -4 2 273506 3509.46 2
-2 4 2 264134 3555.39 2
-2 -4 4 34625.7 815 2
-2 4 4 35429 841.304 2
2 4 6 136111 2185.54 5
2 -4 6 133260 2148.78 5
-2 5 -7 1428.17 283.648 1
-2 -5 -7 1757.05 328.276 6
2 -5 -5 6224.42 263.056 4
2 -5 -5 6094.19 301.808 6
2 -5 -5 5755.64 278.027 1
-2 -5 -5 5841.88 395.371 6
-2 5 -5 5563.9 371.157 1
2 -5 -3 32721.3 551.004 1
-2 5 -3 32146.7 745.986 1
2 -5 -3 32406.3 545.122 6
2 -5 -3 33007.1 590.085 4
-2 -5 -3 32307.8 769.227 6
-2 5 -1 7047.61 230.993 1
2 -5 -1 7527.88 229.25 4
2 -5 -1 6762.15 133.667 1
-2 -5 -1 6836.65 257.214 6
-2 -5 -1 6850.92 168.858 2
-2 -5 1 7311.86 260.411 2
-2 5 1 6923.82 275.045 2
2 5 1 6852.17 186.388 2
2 5 3 32067.4 698.69 3
-2 5 3 30709.2 743.127 2
-2 -5 3 31936.3 734.357 2
-2 5 5 5517.46 339.18 2
2 -5 7 1095.19 245.54 5
-2 5 7 1418.07 218.675 2
2 5 7 1186.28 256.528 5
-2 -6 -8 -41.8858 215.497 6
2 -6 -6 5491.55 275.904 4
-2 6 -6 4938.39 386.477 1
-2 6 -4 26771.3 729.636 1
2 -6 -4 25726.1 555.649 1
2 -6 -4 26253.8 548.24 4
-2 -6 -4 25665.4 739.054 6
2 -6 -4 26012.1 546.528 6
-2 6 -2 52082.6 919.573 1
2 -6 -2 50859.1 812.071 4
-2 -6 -2 49914.4 930.091 6
2 -6 0 72248.9 1041.54 1
2 6 0 69665.2 1097.56 2
-2 -6 0 71199.7 1059.06 2
2 6 2 52982.4 895.081 3
-2 -6 2 52315.2 947.924 2
-2 6 2 49906.7 979.879 2
-2 6 4 26474.6 729.232 2
-2 6 6 5312.63 355.281 2
2 -6 6 5484 366.554 5
2 6 6 5027.05 352.237 5
-2 -7 -7 4329.23 415.074 6
-2 7 -7 4441.89 373.121 1
2 -7 -5 43384.8 854.656 6
2 -7 -5 45737.6 900.629 1
2 -7 -5 44371.1 840.831 4
-2 7 -5 42621.7 1038.89 1
-2 -7 -5 42936.4 1090 6
-2 7 -3 207440 2872.54 1
2 -7 -3 205795 2698.15 4
-2 -7 -3 209126 2924.42 6
2 -7 -1 146813 1957.3 4
2 -7 -1 147340 1921.87 3
2 -7 1 147685 2096.04 1
2 7 1 147851 1947.9 2
-2 7 1 151544 2170.79 2
2 7 3 213220 2929.75 3
-2 7 3 210788 3007.16 2
-2 7 5 42266.7 1000.43 2
2 -7 7 3827.6 348.237 5
2 7 7 4235.85 352.953 5
-2 -8 -8 12739.7 722.133 6
2 -8 -6 21457.5 577.828 4
-2 -8 -6 21933 807.407 6
-2 8 -6 20983.2 750.709 1
2 -8 -4 26514.2 513.019 6
2 -8 -4 27224.9 592.515 4
-2 -8 -4 25507.2 731.152 6
-2 8 -4 25930.7 702.342 1
-2 -8 -2 134895 1967.51 6
2 -8 -2 131494 1833.76 4
-2 8 -2 136155 1889.62 1
2 8 0 26236.2 557.398 2
2 -8 0 27395.6 516.144 1
2 -8 0 27060.3 576.672 4
2 -8 0 27245.4 416.38 3
-2 -8 2 137081 1613.97 4
2 8 2 130261 1633.74 2
2 8 2 132752 1904.86 3
-2 8 2 131301 2018.37 2
-2 8 4 26060.5 733.139 2
-2 8 6 20088.6 683.756 2
2 8 6 22225.5 704.53 5
2 -8 6 20854.2 668.284 5
2 -9 -7 23216.4 658.643 4
-2 -9 -7 23104.6 900.475 6
2 -9 -5 14576.1 448.767 4
-2 -9 -5 12816.2 558.224 6
-2 9 -5 13775.3 540.919 1
-2 -9 -3 41597 910.614 6
2 -9 -3 43683.2 792.839 4
2 -9 -1 294846 3653.5 4
-2 9 -1 285095 3445.5 3
2 -9 1 330871 4046.78 4
2 9 1 336075 3916.26 3
2 9 3 43596.6 932.945 3
-2 9 3 42113.5 962.21 2
-2 9 5 13214.2 532.65 2
2 9 5 14225.4 497.969 5
2 -9 5 14624.5 494.83 5
2 9 7 26013.7 844.308 5
2 -9 7 23784.1 789.967 5
2 -10 -6 11289.3 430.232 4
-2 -10 -6 10293.9 536.137 6
2 -10 -4 24618.6 592.602 4
-2 -10 -4 23395.2 697.886 6
2 -10 -2 86460.7 1323.67 4
2 -10 0 186966 2495.37 1
2 -10 0 198740 2603.18 4
-2 -10 2 90149.2 1145.16 4
-2 10 2 88502.5 1527.2 2
-2 10 2 86626.1 1211.22 6
2 10 2 88494.9 1425.62 3
2 10 2 86475.6 1186.09 2
-2 10 4 24955.9 741.153 2
2 10 4 26053.2 778.998 3
-2 10 6 10325.3 490.108 2
2 10 6 11319.6 499.592 5
2 -10 6 11280.4 481.085 5
2 -11 -7 13804 517.29 4
-2 -11 -7 12738.5 645.924 6
2 -11 -5 31697.4 737.761 4
-2 -11 -5 29813.9 864.473 6
2 -11 -3 67573.1 1132.26 4
-2 -11 -3 66525.6 1262.73 6
-2 11 -1 96819.8 1294.96 3
2 -11 -1 95617.1 1459.43 4
2 -11 1 98082.8 1561.03 4
-2 -11 1 99921.5 1342.82 4
2 11 1 94374.5 1419.2 2
2 11 1 97726.1 1470.41 3
-2 11 3 66565.1 1323.4 2
2 11 3 66608.9 1288.34 3
-2 11 5 31269.5 893.124 2
2 11 5 31863.1 785.591 5
2 -11 5 30563.6 750.608 5
2 11 7 14936.3 624.295 5
2 -11 7 14832 615.733 5
2 -12 -6 3794.53 278.857 4
-2 -12 -6 3623.5 344.437 6
2 -12 -4 17009.3 509.523 4
-2 -12 -4 16311 590.056 6
2 -12 -2 6765.73 290.594 4
-2 12 -2 6688.15 180.392 3
2 -12 0 3382.27 209.904 4
-2 12 0 3708.67 181.968 3
2 12 2 6342.48 218.048 2
-2 -12 2 6728.1 195.887 4
2 -12 2 6165.9 326.982 4
-2 12 2 6423.07 229.947 6
-2 12 2 6604.2 357.666 2
2 12 2 6452.56 315.401 3
2 12 4 16979.7 653.146 3
-2 12 4 15817.1 607.8 2
2 12 6 4127.07 320.659 5
2 -12 6 4173.31 307.871 5
2 -13 -7 6344.74 380.711 4
-2 -13 -7 6902.58 495.215 6
2 -13 -5 28584.1 727.91 4
-2 -13 -5 26999.2 824.212 6
2 -13 -3 139572 2045.4 4
2 -13 -1 24161.6 594.865 4
-2 13 -1 24176.7 490.056 3
2 -13 -1 25803.5 455.357 5
2 -13 1 24179 644.416 4
2 13 1 25311.3 611.607 3
-2 13 3 138924 2288.09 2
2 13 3 137749 2232.28 3
-2 13 5 27677.4 857.171 2
2 13 5 29632.1 752.11 5
2 -13 5 28752.2 724.467 5
2 13 7 7229.79 441.284 5
2 -13 7 6359.36 404.228 5
2 -14 -6 12591.3 506.316 4
-2 -14 -6 11294.2 566.712 6
2 -14 -4 14805.1 491.518 4
2 -14 -2 13148.7 433.8 4
-2 14 -2 12410.5 296.303 3
2 -14 0 923.104 166.874 4
-2 -14 0 563.446 118.385 4
-2 14 0 775.657 120.31 3
2 -14 2 12108.6 486.288 4
-2 -14 2 12686.6 316.832 4
-2 14 2 13090.8 529.592 2
2 14 2 12758.5 484.322 3
2 14 4 15560.4 649.065 3
-2 14 4 14823.4 606.607 2
2 14 4 15741.5 470.167 5
2 -14 4 14667 443.727 5
2 14 6 12675.6 526.332 5
2 -14 6 12235.1 504.276 5
-2 -15 -7 825.377 267.004 6
2 -15 -5 19267.8 612.045 4
-2 -15 -5 18225.5 685.15 6
2 -15 -3 39022.8 843.092 4
2 -15 -1 159628 2273.24 4
-2 -15 -1 153147 2218.34 4
-2 15 -1 153559 2101.86 3
2 -15 1 155732 2393.95 4
-2 -15 1 162963 2162.96 4
2 15 1 162024 2356.02 3
2 15 3 40038.1 1014.75 3
-2 15 3 40442 1043.72 2
2 -15 3 39250.9 727.978 5
2 15 3 40632.6 746.298 5
2 -15 5 20398.3 596.569 5
2 15 5 21366 626.985 5
2 -16 -6 11616.4 508.718 4
2 -16 -4 10435 436.343 4
2 -16 -2 42631.6 910.428 4
-2 16 -2 42887.8 727.035 3
2 -16 0 3848.58 268.627 4
-2 -16 0 3775.47 232.065 4
-2 16 0 3791.61 226.937 3
-2 -16 2 44818.8 776.162 4
2 -16 2 43957.1 1051.83 4
-2 16 2 44908.4 1121.1 2
2 16 2 45679.9 1055.95 3
2 16 4 10718.3 562.905 3
-2 16 4 10635.6 535.378 2
2 -17 -5 12755.9 517.509 4
2 -17 -3 1710.15 205.86 4
-2 -17 -3 1788.44 229.993 4
2 -17 -1 383.949 159.531 4
-2 -17 -1 373.395 141.972 4
2 -17 1 239.394 148.354 4
-2 -17 1 320.063 113.92 4
2 17 1 404.648 170.746 3
-2 17 3 1811.71 261.316 2
2 17 3 1842.19 260.833 3
2 -18 -4 4707.05 319.762 4
-2 -18 -4 4038.98 330.996 4
2 -18 -2 54909.4 1111.23 4
-2 -18 -2 54272.4 1107.26 4
2 -18 0 8882.14 411.31 4
-2 -18 0 9421.98 355.139 4
-2 18 0 8877.34 363.307 3
2 18 0 9517.72 401.079 3
2 -18 2 53393.9 1233.92 4
-2 -18 2 56125.2 962.852 4
-2 18 2 55621.9 1341.48 2
2 18 2 57897 1267.91 3
2 18 4 4439.27 405.977 3
-2 18 4 4403.91 378.526 2
2 -19 -5 10819.9 496.26 4
2 -19 -3 1194.31 196.952 4
-2 -19 -3 1084.42 206.849 4
2 -19 -1 28334 758.727 4
-2 -19 -1 31061.1 741.729 4
-2 -19 1 32542.1 689.117 4
2 19 1 31397.2 837.762 3
2 -19 1 30706.4 851.729 4
-2 19 3 1667.07 258.017 2
2 19 3 1365.35 263.102 3
2 -20 -4 7982.22 434.24 4
-2 -20 -4 8160.76 452.828 4
2 -20 -2 12684.8 501.279 4
-2 -20 -2 12612.6 501.503 4
2 -20 0 20750.7 672.211 4
-2 -20 0 20680.9 569.779 4
-2 20 0 20952.8 616.55 3
2 20 0 21678 657.227 3
2 -20 2 12780.2 572.916 4
2 20 2 13818.8 613.39 3
-2 20 2 13217.2 641.7 2
2 20 4 8684.17 583.254 3
2 -21 -3 14929.6 578.449 4
-2 -21 -3 16418.7 604.59 4
2 -21 -1 4381.6 325.526 4
-2 -21 -1 4803.7 298.624 4
2 -21 1 4465.58 337.863 4
-2 -21 1 5029.75 271.92 4
2 21 1 4809.74 353.354 3
-2 21 3 16746.7 749.155 2
2 21 3 16838.8 747.287 3
-2 -22 -2 16430.5 584.08 4
2 -22 -2 14795.2 584.864 4
2 -22 0 4460.72 344.264 4
-2 -22 0 4806.63 289.485 4
2 22 0 4842.67 337.375 3
2 -22 2 14300.5 644.451 4
-2 22 2 15750.3 742.789 2
2 -23 -1 7343.4 431.241 4
-2 -23 -1 8152.25 398.27 4
2 23 -1 7601.17 397.32 3
2 -23 1 7660.9 466.455 4
2 23 1 8340.98 482.962 3
-2 -24 -2 8221.7 437.912 4
2 -24 0 14675.9 636.201 4
-2 -24 0 15154.8 530.483 4
2 24 0 15187.8 612.728 3
2 -24 2 6526.74 469.873 4
-2 24 2 7531.08 545.402 2
-2 -25 -1 5979.28 375.531 4
2 25 -1 6074.9 404.174 3
2 -25 1 5326.27 426.112 4
-3 0 -7 -51.8506 197.855 1
-3 0 -7 21.4728 239.567 6
-3 0 -5 -203.445 234.462 6
3 0 -3 143.839 57.3068 4
-3 0 -3 -81.8722 130.285 6
3 0 -1 271.728 58.4854 6
-3 0 -1 118.671 82.4006 6
-3 0 1 374.62 76.146 4
-3 0 1 183.741 90.4216 2
-3 0 3 89.8796 39.9363 4
-3 0 3 30.8187 48.0634 1
-3 0 3 -24.0126 117.056 2
-3 0 5 -12.3889 143.727 2
3 0 7 -91.1323 194.82 5
-3 0 7 123.782 170.125 2
-3 1 -6 28781.5 1002.9 1
-3 1 -6 26561.1 986.007 6
-3 -1 -6 28512 1019.33 6
3 1 -4 31007.2 527.149 4
3 -1 -4 32238.2 570.017 4
-3 -1 -4 32133.8 904.383 6
3 -1 -2 32197.9 593.282 4
-3 -1 -2 30901.4 574.156 2
-3 -1 -2 32071.2 731.636 6
-3 1 -2 31675.1 733.85 6
3 1 0 77449 1224.5 2
3 1 0 78180.6 1181.87 6
-3 1 0 77279.5 1105.46 6
-3 -1 0 79260.7 1140.17 6
-3 -1 0 74869.3 1217.14 2
3 -1 0 76414.5 1144.89 6
-3 1 0 76158.5 1240.05 2
-3 -1 2 31601.4 501.825 4
-3 1 2 31330 526.794 4
-3 -1 2 31553.5 747.869 2
3 1 2 32292.3 558.326 3
-3 1 2 33214 779.033 2
3 -1 2 32406.7 525.005 3
-3 1 2 31572 475.96 1
-3 -1 4 31397.6 844.332 2
-3 1 4 31271 846.506 2
-3 -1 6 26752.9 844.856 2
-3 1 6 25448.7 809.948 2
-3 2 -7 1587.27 331.134 1
-3 2 -7 1704.45 317.965 6
-3 -2 -7 1551.33 297.817 6
-3 2 -5 17502.3 706.925 1
-3 -2 -5 18083.2 730.07 6
3 -2 -5 17268.3 411.179 4
3 -2 -3 60529.6 923.571 4
-3 -2 -3 59528.9 867.88 2
-3 -2 -3 58555 1183.99 6
-3 2 -3 57271.5 825.116 3
-3 2 -1 90979.9 1409.02 6
3 2 -1 93003.6 1325.36 6
-3 2 -1 92731.4 1402.64 2
-3 -2 -1 93709.9 1417.1 6
3 -2 -1 95405 1238.38 6
-3 -2 -1 93076.5 1348.1 2
-3 -2 1 92773.2 1473.16 2
3 2 1 93873.2 1337.41 2
-3 2 1 92673.8 1501.96 2
-3 -2 3 60127.4 1200.41 2
-3 -2 3 60982.7 976.813 1
-3 2 3 60557.4 1211.95 2
3 2 3 60536.7 1016.83 3
-3 -2 5 16493.4 614.19 2
-3 2 5 17004.3 633.437 2
-3 2 7 1617.23 254.143 2
-3 -2 7 1767.7 259.798 2
3 2 7 1766.27 284.123 5
3 -2 7 1709.36 281.342 5
-3 3 -6 8893.52 555.41 1
-3 -3 -6 9815.5 601.025 6
3 -3 -4 37993.2 670.735 4
-3 -3 -4 35985.1 544.841 2
-3 -3 -4 37672.3 974.68 6
3 -3 -2 86499.6 1293.39 4
3 -3 -2 87776 1100.77 6
-3 -3 -2 91016.8 1224.6 2
-3 -3 -2 89128.6 1466.89 6
-3 3 0 31546.6 682.484 2
-3 -3 0 32344.6 644.841 2
-3 3 0 30964.7 547.365 6
3 3 0 31806.3 654.194 2
-3 -3 2 88481.1 1153.39 4
-3 3 2 88394.7 1521.26 2
3 3 2 87202.4 1267.91 3
-3 -3 4 39365.8 950.253 2
-3 3 4 36427.6 940.529 2
-3 3 6 9111.71 487.64 2
-3 -3 6 8575.99 471.243 2
-3 -4 -7 5045.11 462.047 6
-3 4 -7 4510.74 427.63 1
3 -4 -5 62351.2 1038.47 4
-3 -4 -5 63273.8 1450.07 6
-3 4 -3 26160.7 704.255 1
3 -4 -3 27027.3 541.893 4
-3 -4 -3 25548 711 6
-3 4 -3 25413.2 405.164 3
3 -4 -1 64203.4 1069.49 4
-3 -4 -1 64338.8 992.275 2
-3 -4 -1 66477.2 1098.44 6
-3 4 1 65420.4 1182.92 2
3 4 1 64456.7 998.748 2
-3 -4 1 65878.9 1139.04 2
-3 4 3 25913.7 733.918 2
3 4 3 26347.4 608.716 3
-3 -4 3 26281.9 709.56 2
-3 4 5 58612 1314.94 2
-3 -4 5 60552.6 1301.78 2
-3 4 7 4399.38 365.404 2
3 4 7 4585.82 376.596 5
3 -4 7 4918.22 374.913 5
-3 -5 -6 20989 838.624 6
-3 5 -6 23024.2 864.31 1
3 -5 -4 32772 647.845 4
3 -5 -4 33466.7 590.383 6
-3 -5 -4 31867.1 887.532 6
-3 -5 -2 97864.3 1595.27 6
3 -5 -2 99176.4 1473.02 4
-3 -5 -2 101934 1295.18 2
-3 5 -2 101499 1599.35 1
-3 -5 0 11030.7 336.679 2
3 5 0 10422.2 342.224 2
-3 5 0 10797.4 382.061 2
-3 5 0 10900.7 256.72 1
-3 -5 2 100238 1285.36 4
-3 -5 2 99939 1623.14 2
3 5 2 96906 1438.35 3
-3 5 2 100047 1684.58 2
-3 -5 4 33458.2 871.097 2
-3 5 4 32099.9 884.471 2
-3 5 6 20113.5 741.271 2
-3 6 -7 3555.5 385.452 1
-3 -6 -7 3336.4 394.03 6
3 -6 -5 17421.7 472.929 4
-3 -6 -5 16222.9 671.015 6
-3 6 -5 17102 666.443 1
3 -6 -3 103302 1497.51 4
-3 6 -3 104679 1704.5 1
-3 -6 -3 106732 1741.48 6
-3 6 -3 99968.8 1250.49 3
-3 -6 -1 41261.1 677.29 2
3 -6 -1 40602 790.495 4
-3 -6 -1 42139.1 828.23 6
-3 6 -1 40135.3 732.1 1
-3 -6 1 40815 811.794 2
-3 6 1 41388.8 898.853 2
3 6 1 41690.3 726.106 2
-3 6 3 100601 1806.55 2
3 6 3 104811 1643.69 3
-3 6 5 15611.8 627.908 2
-3 -6 5 17104.9 625.751 2
-3 6 7 2654.66 300.812 2
3 6 7 2972.88 327.847 5
3 -6 7 3035.02 306.834 5
3 -7 -6 23031.8 601.782 4
-3 7 -6 22175.7 815.154 1
-3 -7 -6 22005.2 853.425 6
-3 7 -4 14733.5 561.074 1
3 -7 -4 14895 422.651 4
-3 -7 -4 13662.2 556.103 6
-3 7 -2 81159.4 1312.73 1
3 -7 -2 77318.7 1247.43 4
-3 -7 -2 78475.8 1363.52 6
3 -7 0 119913 1527.2 3
-3 -7 0 116782 1710.56 2
-3 -7 2 80943.5 1371.4 2
3 7 2 77702.3 1037.59 2
3 7 2 77216.8 1233.64 3
-3 7 2 79318.8 1452.97 2
3 7 4 14276.2 529.82 3
-3 7 4 14193.6 577.874 2
-3 -7 4 14148.8 539.674 2
-3 7 6 21387.6 778.666 2
-3 8 -7 9520.02 577.3 1
-3 -8 -7 9076.32 607.5 6
3 -8 -5 1123.17 156.602 4
-3 8 -5 739.748 201.883 1
-3 -8 -5 474.412 184.587 6
3 -8 -3 22474.3 541.739 4
-3 8 -3 22226.9 617.192 1
-3 -8 -3 21304.4 640.476 6
3 -8 -1 130438 1903.22 4
-3 8 -1 129146 1773.56 1
-3 8 1 135445 2093.33 2
3 8 1 129939 1820.18 2
-3 -8 1 130895 1926.22 2
3 8 3 22196.3 618.811 3
-3 8 3 22149.4 709.661 2
-3 -8 3 23087.2 666.615 2
-3 8 5 483.612 165.657 2
3 8 7 9503.11 530.705 5
3 -8 7 9079.83 497.645 5
3 -9 -6 717.967 159.528 4
-3 9 -6 527.234 186.54 1
-3 -9 -4 2906.49 278.026 6
3 -9 -4 3389.74 223.574 4
-3 9 -4 3213.31 268.527 1
3 -9 -2 66047.4 1084.26 4
-3 -9 -2 66907 1195.92 6
-3 9 -2 66683.7 1074.64 1
3 -9 0 129786 1955.76 4
3 -9 0 126158 1590.03 3
-3 9 2 67771.1 1337.02 2
-3 -9 2 66226.8 888.165 4
3 9 2 65676.8 1134.39 3
3 9 2 65674.6 937.93 2
3 9 4 3271.57 277.715 3
-3 9 4 3200.09 292.435 2
-3 9 6 221.497 156.668 2
-3 -10 -7 1290.09 273.915 6
3 -10 -5 3780.07 253.966 4
-3 -10 -5 2982.45 311.182 6
-3 10 -5 3660.17 309.927 1
-3 10 -3 18484.8 540.499 1
3 -10 -3 19630.6 515.042 4
-3 -10 -3 18449.3 605.623 6
3 -10 -1 11222.5 397.323 4
3 -10 -1 11586.6 294.188 1
3 -10 1 11353.6 450.913 4
3 10 1 10421.4 328.026 2
-3 10 1 11244.1 467.998 2
3 10 3 19986.8 615.904 3
-3 10 3 20209.5 694 2
-3 10 5 3549.73 334.548 2
3 10 7 1776.38 298.509 5
3 -10 7 1728.94 272.933 5
-3 -11 -6 203.211 215.205 6
3 -11 -6 591.028 167.406 4
3 -11 -4 31013.6 733.975 4
-3 -11 -4 31041.1 863.328 6
3 -11 -2 6612.69 304.302 4
3 -11 -2 6677.9 181.791 1
3 -11 0 32917.6 780.596 4
-3 11 2 6662.2 388.091 2
3 11 2 6702.03 320.953 3
3 11 2 6495.47 219.576 2
3 11 4 30691.8 882.935 3
-3 11 4 31564.8 929.981 2
3 -11 6 426.576 177.616 5
-3 11 6 115.499 158.708 2
-3 -12 -7 4091.08 420.623 6
3 -12 -5 54575.2 1091.24 4
-3 -12 -5 50425.1 1252.54 6
3 -12 -3 22606 595.731 4
-3 -12 -3 22722.5 710.816 6
3 -12 -1 13290.4 352.178 1
3 -12 -1 13359.4 457.657 4
3 -12 1 12608.3 498.589 4
-3 12 1 13686.8 550.095 2
3 12 1 13601.9 425.956 3
3 12 3 24250.1 727.262 3
-3 12 3 22463.4 772.265 2
-3 12 5 51123.9 1299.5 2
3 12 7 5259.8 396.014 5
3 -12 7 4757.03 376.034 5
3 -13 -6 1752.18 237.706 4
-3 -13 -6 1285.69 260.377 6
3 -13 -4 86067.4 1474.7 4
-3 -13 -4 80503.9 1616.83 6
3 -13 -2 13394.2 463.949 4
3 -13 0 20840.8 616.931 4
-3 13 2 13247.9 572.302 2
-3 -13 2 13779.2 307.983 4
3 13 2 13397.2 480.26 3
3 13 4 85075.5 1701.69 3
-3 13 4 84989.1 1764.59 2
3 13 6 1355.79 231.898 5
3 -13 6 1393.45 222.299 5
3 -14 -7 8935.8 468.211 4
3 -14 -5 2773.55 271.35 4
-3 -14 -5 2942.15 332.418 6
3 -14 -3 73458 1328.52 4
3 -14 -1 138.025 140.427 4
3 -14 1 636.785 162.711 4
-3 -14 1 289.918 95.6053 4
3 14 1 579.529 149.677 3
-3 14 3 71700.8 1592.71 2
3 14 3 75405.6 1505.12 3
-3 14 5 2464.8 306.386 2
3 14 5 2825.53 253.718 5
3 -14 5 2699.1 238.29 5
3 -14 7 8728.67 485.534 5
-3 -15 -6 4339.42 408.909 6
3 -15 -6 4240.26 331.963 4
3 -15 -4 6469.2 359.765 4
3 -15 -2 79714.3 1426.51 4
3 -15 0 38685.1 930.569 4
3 15 2 85292.6 1547.33 3
-3 -15 2 86456.8 1223.79 4
-3 15 2 83020.9 1740.58 2
3 15 4 6663.88 451.413 3
-3 15 4 5830.12 438.387 2
3 -16 -5 6661.95 390.646 4
3 -16 -3 24919 708.424 4
3 -16 -1 112698 1880.59 4
-3 -16 1 123064 1730.26 4
3 16 1 119866 1925.18 3
-3 16 3 25559 894.803 2
3 16 3 25655.5 830.882 3
-3 16 5 6718.08 477.399 2
3 -17 -4 3898.69 307.576 4
3 -17 -2 6670.78 378.012 4
3 -17 0 9078.35 445.698 4
-3 -17 0 9551.24 362.706 4
-3 17 2 6971.93 475.061 2
3 17 2 6619.18 387.216 3
3 17 4 4219.49 393.768 3
-3 17 4 4306.43 400.847 2
3 -18 -5 2392.21 271.024 4
3 -18 -3 2961.44 287.406 4
3 -18 -1 25083.2 755.128 4
-3 -18 -1 25445.6 675.876 4
3 -18 1 26259.9 834.813 4
-3 -18 1 26872.6 603.527 4
3 18 1 27415.2 758.686 3
-3 18 3 2858.97 334.542 2
3 18 3 2534.6 300.249 3
3 -19 -4 4743.88 344.975 4
3 -19 -2 8299.12 437.964 4
-3 -19 -2 7988.27 401.769 4
3 -19 0 2503.04 283.102 4
-3 -19 0 2670.38 222.757 4
3 19 0 2490.2 244.953 3
-3 19 2 8964.67 560.069 2
3 19 2 9000.99 485.346 3
3 19 4 4995.95 442.034 3
-3 19 4 4978.77 447.651 2
3 -20 -3 3492.33 304.31 4
-3 -20 -3 3468.06 304.015 4
3 -20 -1 4647.29 360.359 4
-3 -20 -1 5535.16 319.909 4
3 -20 1 5047.36 393.514 4
3 20 1 5171.52 350.962 3
-3 20 3 3786.93 395.854 2
3 20 3 4265.75 390.146 3
3 -21 -2 3159.44 308.936 4
-3 -21 -2 3245.16 290.809 4
3 -21 0 3178.44 314.568 4
-3 -21 0 2902.78 233.634 4
3 21 0 3037.69 279.106 3
3 -21 2 2943.58 335.538 4
-3 21 2 3545.08 390.906 2
3 21 2 4219.16 381.498 3
-3 -22 -1 1778.93 224.625 4
3 -22 -1 1569.38 263.195 4
3 -22 1 2896.37 323.055 4
3 22 1 2072.05 276.376 3
-3 22 3 70.6075 212.464 2
-3 -23 -2 8058.39 425.725 4
3 -23 0 7347.04 477.635 4
-3 -23 0 7908.26 373.474 4
-3 23 2 8513.11 609.276 2
-3 -24 -1 3865.25 307.53 4
-3 24 3 1121.82 292.523 2
-4 0 -6 1900.63 345.116 6
-4 0 -4 116200 2122.97 6
-4 0 -2 12803.1 398.066 2
4 0 -2 12128 327.813 6
-4 0 0 897982 11567.3 2
-4 0 2 12608.9 507.683 2
4 0 2 11542.4 289.729 3
-4 0 4 118522 2112.61 2
-4 0 6 1722.94 273.792 2
-4 -1 -7 4105.05 474.681 1
-4 1 -7 4437.61 507.019 1
-4 -1 -7 3856.66 449.002 6
-4 1 -7 3870.69 476.269 6
-4 1 -5 4245.82 401.949 6
-4 -1 -5 5194.01 417.975 6
-4 -1 -3 4116.38 205.101 2
-4 1 -3 4227.45 226.501 2
-4 -1 -3 4311.02 306.5 6
-4 1 -3 4322.42 311.226 6
-4 1 -1 162878 2366.01 2
-4 1 -1 165245 2333.87 6
-4 -1 -1 167479 2333.2 6
4 -1 -1 167881 2205.59 6
-4 -1 -1 163471 2337.22 2
-4 -1 1 164193 2463.38 2
-4 1 1 164868 2467.53 2
-4 1 3 3679.17 144.61 1
-4 -1 3 4096.68 307.777 2
-4 -1 3 3880.42 150.642 4
-4 1 3 4204.5 310.267 2
-4 -1 3 4152.7 181.42 1
4 1 3 3931.74 198.734 3
-4 -1 5 3643.92 329.768 2
-4 1 5 3522.46 331.072 2
-4 1 7 3718.94 372.019 2
-4 -1 7 3746.36 372.609 2
-4 2 -6 4432.79 459.934 1
-4 -2 -6 3479.12 397.209 6
-4 2 -6 3881.54 406.141 6
4 -2 -4 143365 2033.04 4
-4 -2 -4 143359 1936.15 2
-4 -2 -4 140787 2431.29 6
-4 2 -2 14766.9 446.157 2
4 -2 -2 13960.8 309.082 6
-4 -2 -2 14186.6 491.028 6
-4 2 -2 13769.7 486.717 6
-4 -2 -2 14476 404.211 2
-4 -2 0 61275.2 1054.81 6
-4 -2 0 62457.4 1150.91 2
-4 2 0 63682.2 996.162 6
-4 2 0 64375.8 1194.75 2
-4 -2 2 13769.9 331.064 4
-4 2 2 13275.1 233.135 1
-4 -2 2 13880 521.13 2
-4 2 2 13894.7 527.16 2
4 2 2 13945.8 343.043 3
4 -2 2 14188.1 290.014 3
-4 -2 4 145437 2412.66 2
-4 2 4 137719 2398.96 2
-4 -2 6 3390.7 341.577 2
-4 2 6 3938.79 371.462 2
-4 3 -7 4609.34 478.515 1
-4 -3 -7 4684.58 469.801 6
-4 3 -7 4835.9 509.909 6
-4 3 -5 22909.5 861.009 1
-4 -3 -5 21405 810.378 6
-4 3 -5 20191.4 819.848 6
4 -3 -3 81142.6 1305.67 4
-4 -3 -3 81400.1 1519.13 6
-4 -3 -3 82182.2 1180.33 2
-4 3 -3 80274.6 1539.72 6
4 -3 -3 77747.6 1054.61 6
-4 3 -1 1050.7 135.219 6
-4 -3 -1 767.851 130.313 6
-4 3 -1 768.647 132.157 2
-4 -3 1 920.168 148.025 2
-4 3 1 801.601 161.776 2
-4 -3 3 83135.9 1538.27 2
-4 3 3 84054.9 1594.1 2
4 3 3 81484.8 1274.14 3
-4 -3 5 19233.2 709.555 2
-4 3 5 19191 743.591 2
-4 3 7 4108.21 387.521 2
-4 -3 7 4578.45 408.528 2
-4 4 -6 20570.4 879.66 1
-4 -4 -6 18641.4 824.242 6
-4 -4 -4 94263.7 1800.43 6
-4 4 -4 97673.1 1839.83 1
4 -4 -4 92304.9 1475.28 4
4 -4 -2 23857.1 605.152 4
-4 -4 -2 25097.4 525.397 2
-4 -4 -2 22542.7 632.546 6
-4 4 -2 23470 655.523 6
-4 4 0 52792.1 1069.61 2
-4 -4 0 53157.4 1004.06 2
-4 4 0 52006.6 860.483 6
-4 -4 2 24218.9 472.673 4
-4 -4 2 25429.4 718.471 2
-4 4 2 23226.2 711.728 2
4 4 2 23955.3 515.869 3
-4 -4 4 94944.9 1771.08 2
-4 4 4 89400.3 1772.43 2
-4 4 6 17348.1 735.514 2
-4 -4 6 18246.5 739.197 2
-4 -5 -7 5451.22 505.543 6
4 -5 -5 16770.4 501.687 4
-4 -5 -5 18100.9 744.036 6
4 -5 -3 6510.76 298.28 4
-4 5 -3 6527.07 369.551 1
-4 -5 -3 6170.11 164.332 2
-4 -5 -3 5524.73 340.782 6
-4 -5 -1 70613 1129.09 2
-4 5 -1 68839.6 1260.96 2
-4 -5 -1 69843.8 1213.08 6
-4 5 -1 66986.9 1172.54 6
-4 5 1 70587.2 1351.14 2
-4 -5 1 67284.3 1257.89 2
-4 -5 3 6651.81 385.925 2
-4 5 3 6490.97 398.726 2
4 5 3 6336.09 299.712 3
-4 -5 5 16392.4 673.72 2
-4 5 5 16539.5 702.599 2
-4 5 7 5117.23 429.554 2
-4 -6 -6 12538.2 670.073 6
-4 6 -6 12789 668.323 1
4 -6 -4 46564.2 928.161 4
-4 6 -4 48144.4 1165.95 1
-4 -6 -4 45750.7 1139.49 6
4 -6 -2 69162.9 1241.93 4
-4 -6 -2 70033.9 1032.75 2
-4 6 -2 71060.7 1273.51 1
-4 -6 -2 69577.4 1298.86 6
-4 6 0 99238.8 1379.45 1
-4 -6 0 99407.8 1580.2 2
-4 6 0 103128 1723.98 2
-4 6 0 99468.5 1429.71 6
-4 -6 2 68287.2 1033.32 4
-4 -6 2 71722 1342.83 2
4 6 2 69214.1 1126.34 3
-4 6 2 67607.9 1399.28 2
-4 -6 4 47420.5 1142.37 2
-4 6 4 44260.7 1176.42 2
4 6 4 46071.9 1006.87 3
-4 6 6 11897.2 623.29 2
-4 -6 6 11357 579.472 2
4 -7 -5 15584.9 502.561 4
-4 -7 -5 14703.8 665.506 6
-4 7 -5 15946.4 681.171 1
4 -7 -3 45616.2 917.918 4
-4 -7 -3 43492.9 1025.12 6
-4 7 -3 44513.9 1011.13 1
-4 7 -1 106650 1590.18 1
-4 -7 -1 104955 1556.63 2
-4 -7 1 107118 1706.78 2
-4 7 1 104665 1295.3 6
-4 -7 3 48233.3 1099.55 2
-4 7 3 45606.4 1137.2 2
4 7 3 46277 964.597 3
-4 7 5 14946.7 666.673 2
-4 -7 5 14862.4 633.832 2
-4 7 7 4875.88 437.563 2
-4 8 -6 3686.19 373.457 1
-4 -8 -6 3077.61 367.502 6
-4 8 -4 12202.2 540.497 1
4 -8 -4 12513.5 445.543 4
-4 -8 -4 13250.9 562.57 6
4 -8 -2 4793.33 284.845 4
-4 -8 -2 5377.92 338.488 6
-4 -8 0 158091 2284.22 2
4 -8 0 160000 2018.33 3
-4 -8 2 5143.95 324.491 2
4 8 2 4699.98 188.159 2
4 8 2 4878.37 259.138 3
-4 8 2 5069.78 355.077 2
4 8 4 12221.1 500.707 3
-4 8 4 11093.3 569.796 2
-4 -8 4 12958.4 563.353 2
-4 8 6 3386.99 355.909 2
4 -9 -5 19342.1 586.637 4
-4 9 -5 18758 714.563 1
-4 -9 -5 17567 719.415 6
4 -9 -3 39941.2 879.37 4
-4 -9 -3 39012.8 965.139 6
-4 9 -3 39808.3 909.984 1
4 -9 -1 54701.8 1125.18 4
-4 9 1 54184.3 1210.77 2
-4 9 1 52732.8 696.128 6
-4 -9 1 54667.6 1058.09 2
4 9 3 41321.4 928.017 3
-4 9 3 40609.6 1102.31 2
-4 -9 3 41111.5 998.662 2
-4 9 5 18313.6 772.792 2
-4 9 7 5598.89 460.553 2
4 -10 -6 1057.1 191.44 4
-4 10 -6 927.84 245.896 1
-4 -10 -6 353.354 229.11 6
-4 10 -4 2986.03 270.146 1
4 -10 -4 3304.78 259.227 4
-4 -10 -4 3384.22 329.255 6
4 -10 -2 1249.34 194.476 4
-4 10 -2 922.746 140.275 1
4 -10 0 2697.72 272.409 4
-4 10 0 1962.95 238.288 2
4 10 2 1459.38 180.294 3
-4 10 2 993.066 204.442 2
-4 -10 2 955.789 174.425 2
-4 10 4 3475.94 347.16 2
4 10 4 3113.5 290.383 3
-4 10 6 547.142 223.703 2
4 -11 -5 31066.6 797.972 4
-4 11 -5 29072.5 874.503 1
-4 -11 -5 28059.8 924.341 6
4 -11 -3 78001.7 1399.22 4
-4 11 -3 75902.8 1360.81 1
-4 -11 -3 75002.7 1505.75 6
4 -11 -1 102584 1756.69 4
-4 11 1 102848 1878.76 2
-4 11 1 96450.2 1268.76 6
4 11 3 78900.1 1483.71 3
-4 11 3 80989.1 1711.7 2
-4 11 5 29298.5 1015.76 2
4 -12 -6 3560.51 302.651 4
-4 -12 -6 3908.53 398.584 6
4 -12 -4 30835 807.51 4
-4 -12 -4 29679.7 899.714 6
4 -12 -2 13554 511.978 4
4 -12 0 17386.5 618.837 4
-4 12 2 13329.6 616.468 2
-4 -12 2 13733.4 314.984 4
4 12 2 13113.3 478.485 3
4 12 4 31843.5 932.45 3
-4 12 4 32218.2 1028.95 2
-4 12 6 3329 371.699 2
4 -13 -5 17984.8 631.623 4
-4 -13 -5 20038.4 774.229 6
4 -13 -3 11115.3 477.161 4
4 -13 -1 63596.7 1302.43 4
-4 13 1 66346.4 1502.03 2
4 13 3 11381.7 515.044 3
-4 13 3 11214.7 605.268 2
4 13 5 19113.4 793.754 3
-4 13 5 17860.3 796.865 2
4 -14 -6 2349.11 276.141 4
4 -14 -4 4432.36 323.716 4
4 -14 -2 16486.2 589.655 4
4 -14 0 15494.4 612.059 4
-4 14 2 16687.4 725.785 2
4 14 2 17402.1 583.44 3
-4 14 4 4957.7 441.303 2
4 14 4 4748.95 385.467 3
-4 14 6 2023.95 322.737 2
4 14 6 2290.85 285.906 5
-4 -15 -5 2303.78 332.463 6
4 -15 -5 1520.51 242.138 4
4 -15 -3 38348.9 963.82 4
4 -15 -1 23572.7 745.179 4
4 -15 1 24249.9 811.826 4
-4 -15 1 24249.9 558.295 4
-4 15 1 24280.8 870.68 2
4 15 1 24228.7 671.937 3
-4 15 3 39365.4 1198.21 2
4 15 3 37953.4 1026.38 3
4 15 5 1153.82 273.785 3
-4 15 5 1782.59 302.846 2
4 -16 -4 2463.62 270.441 4
4 -16 -2 14109.7 577.877 4
4 -16 0 1706.53 277.737 4
-4 16 2 14757.5 713.893 2
4 16 2 14165.9 559.955 3
4 16 4 2610.23 320.928 3
-4 16 4 2542.9 351.631 2
4 -17 -5 2384.65 282.659 4
4 -17 -3 23791.4 768.479 4
4 -17 -1 34028.8 958.402 4
4 -17 1 34061 1024.35 4
-4 -17 1 34879.3 715.745 4
-4 17 1 33626.5 1096.03 2
4 17 1 35415 869.995 3
-4 17 3 24389.7 965.64 2
4 17 3 25141.9 856.455 3
-4 17 5 2427.46 355.164 2
4 -18 -4 3326.81 328.445 4
4 -18 -2 29982.7 892.813 4
4 -18 0 4772.15 378.687 4
-4 -18 0 4977.3 280.617 4
-4 18 2 30594.4 1088.49 2
4 18 2 31040.2 891.62 3
4 18 4 3873.6 401.722 3
-4 18 4 2900.43 367.067 2
4 -19 -3 12011.5 571.741 4
4 -19 -1 984.033 234.513 4
-4 -19 -1 1077.49 196.209 4
-4 19 1 878.256 274.99 2
4 -19 1 634.633 211.032 4
4 19 1 1196.08 209.792 3
4 19 3 12779.1 648.872 3
-4 19 3 12659.5 725.332 2
4 -20 -2 5225.01 392.721 4
4 -20 0 16353.2 709.76 4
-4 -20 0 17438.9 541.298 4
4 20 0 17115.9 605.531 3
-4 20 2 5816.86 510.153 2
4 20 2 6157.48 426.965 3
-4 20 4 2156.73 366.645 2
4 -21 -1 5062.89 412.916 4
-4 -21 -1 5059.78 335.05 4
4 -21 1 4517.44 404.827 4
-4 21 1 5917.38 516.953 2
4 21 1 5434.96 386.038 3
-4 21 3 652.605 286.392 2
-4 -22 -2 3960.61 328.043 4
4 -22 0 7481.59 524.78 4
4 22 0 8566.71 450.229 3
-4 22 2 4570.57 485.226 2
-4 -23 -1 1194.01 210.376 4
-5 0 -5 177.968 221.095 6
-5 0 -3 -9.07564 120.116 6
-5 0 -3 73.7283 92.7523 2
-5 0 -1 -25.2714 113.536 6
-5 0 -1 53.2209 102.468 2
-5 0 1 147.688 147.268 2
-5 0 3 -89.0921 161.972 2
5 0 3 -6.73986 73.6581 3
-5 0 5 -54.9931 179.665 2
-5 -1 -6 7909.48 588.462 6
-5 1 -6 8575.27 610.672 6
-5 1 -4 22410.4 609.225 2
-5 -1 -4 22183.7 801.651 6
-5 1 -4 23349.1 822.507 6
-5 1 -2 5136.26 293.974 2
-5 -1 -2 4404.84 302.928 6
-5 1 -2 5155.14 319.209 6
-5 -1 -2 5006.36 274.895 2
-5 -1 0 35484.3 748.116 6
-5 -1 0 34828.5 859.106 2
-5 1 0 35256.8 715.889 6
-5 1 0 35031.5 883.153 2
5 -1 2 5142.09 182.878 3
5 1 2 4889.18 197.456 3
-5 -1 4 22794.2 822.186 2
-5 1 4 20569.6 780.972 2
-5 -1 6 7905.25 530.952 2
-5 1 6 7894.02 537.938 2
-5 -2 -5 8962.67 555.794 6
-5 2 -5 9356.49 580.119 6
-5 2 -3 20876.9 603.83 2
-5 -2 -3 20743.7 700.985 6
-5 2 -3 20189.2 704.159 6
-5 -2 -3 20972 549.651 2
-5 2 -1 29457.7 772.475 2
-5 -2 -1 28611 710.937 6
-5 -2 -1 29399.7 730.981 2
-5 2 -1 29183.9 699.947 6
-5 -2 1 28426.2 792.672 2
-5 2 1 27996.4 807.753 2
-5 -2 3 20760.2 735.987 2
-5 2 3 20214.3 738.368 2
5 2 3 19848.6 503.458 3
-5 -2 5 8980.07 531.187 2
-5 2 5 8460.32 531.356 2
-5 2 7 549.524 233.109 2
-5 3 -6 4656.33 505.409 1
-5 -3 -6 4260.43 446.582 6
-5 3 -6 4546.07 485.218 6
-5 3 -4 28627.7 746.499 2
-5 -3 -4 28213 906.326 6
-5 3 -4 28364.2 933.662 6
-5 3 -2 31051.7 790.406 2
-5 -3 -2 32114.3 719.272 2
-5 -3 -2 29327 776.811 6
-5 3 -2 31171.7 811.453 6
-5 -3 0 24840.1 691.456 2
-5 3 0 24464.7 552.406 6
-5 3 0 24644.1 744.143 2
-5 -3 2 29707.7 852.298 2
5 -3 2 30585.5 495.68 3
-5 3 2 30710.3 900.167 2
5 3 2 30578.7 612.89 3
-5 -3 4 28913 931.026 2
-5 3 4 26051.9 902.481 2
5 3 4 28172.4 711.692 3
-5 -3 6 3746.28 396.17 2
-5 3 6 4394.62 428.877 2
-5 -4 -5 27597.6 966.798 6
-5 4 -5 27493.1 1008.25 6
-5 4 -3 4755.88 301.499 2
-5 -4 -3 4002.06 321.779 6
-5 4 -3 4651.47 350.315 6
-5 4 -1 31286.9 831.218 2
-5 -4 -1 32155.1 748.322 2
-5 -4 -1 31989.1 770.919 6
-5 4 -1 30471 728.653 6
-5 -4 1 32726.3 844.748 2
-5 4 1 30113.5 867.572 2
-5 -4 3 4533.59 344.392 2
-5 4 3 4891.15 385.984 2
5 4 3 4986.35 269.982 3
-5 -4 5 24744.7 874.138 2
-5 4 5 25835.6 931.836 2
-5 4 7 2722.04 368.132 2
-5 5 -6 6135.92 532.359 1
-5 -5 -6 5389.13 485.43 6
-5 5 -6 5865.1 521.621 6
5 -5 -4 21426.1 638.203 4
-5 -5 -4 20320.4 751.643 6
-5 5 -4 21360.8 810.869 6
-5 -5 -2 26588.5 613.166 2
-5 5 -2 27642.1 767.148 2
-5 -5 -2 24699.4 724.168 6
-5 5 -2 26163.3 741.639 6
-5 5 0 25781.9 777.938 2
-5 5 0 24782.1 534.894 1
-5 -5 0 26534.9 702.797 2
-5 5 0 24359.7 545.555 6
-5 -5 2 26643.6 790.788 2
-5 5 2 25105.5 818.238 2
5 5 2 26619 597.442 3
-5 -5 4 22918.4 809.16 2
-5 5 4 22078.5 836.169 2
5 5 4 22263.6 650.85 3
-5 5 6 5199.96 460.942 2
-5 -5 6 4749.66 409.916 2
-5 6 -5 10317.8 597.082 1
-5 -6 -5 9124.75 541.99 6
-5 6 -5 9437.28 586.324 6
5 -6 -3 33166.6 838.394 4
-5 -6 -3 31516.4 885.017 6
-5 6 -3 31745.9 920.655 6
-5 -6 -1 18420 531.451 2
-5 6 -1 17403.7 621.341 2
-5 6 -1 18316.1 531.186 1
-5 6 -1 16863.9 518.17 6
-5 -6 1 17785.4 590.701 2
-5 6 1 17486.4 659.96 2
-5 -6 3 33336 939.888 2
-5 6 3 30378.9 962.165 2
5 6 3 32534.8 761.316 3
-5 -6 5 9509.94 543.076 2
-5 6 5 8872.47 554.128 2
-5 -7 -6 5599.04 472.327 6
-5 7 -6 6962.2 565.961 6
-5 7 -6 6760.22 539.759 1
5 -7 -4 15931.7 563.215 4
-5 -7 -4 14754.1 633.291 6
5 -7 -2 19508.3 638.445 4
-5 -7 -2 19347.4 470.822 2
-5 -7 -2 18725 636.343 6
-5 7 -2 19087 583.376 1
-5 7 -2 19519.1 667.926 2
-5 7 -2 18503.1 621.142 6
-5 -7 0 51223.7 1041.22 2
-5 7 0 49581.5 1181.8 2
-5 7 0 49365.9 805.294 1
-5 7 0 49298.1 874.215 6
-5 -7 2 19272.1 662.093 2
5 7 2 19215 527.381 3
-5 7 2 19018.7 727.315 2
-5 -7 4 16004.7 673.344 2
-5 7 4 14964.9 704.836 2
5 7 4 15637.9 564.606 3
-5 7 6 5839.55 488.709 2
-5 -7 6 6712.13 495.968 2
5 -8 -5 562.6 164.078 4
-5 8 -5 781.274 230.714 1
-5 -8 -5 266.478 179.562 6
-5 -8 -3 6413.54 394.19 6
-5 8 -3 7065.51 394.037 1
-5 -8 -1 50701.6 955.843 2
-5 8 -1 49831.5 923.751 1
-5 8 -1 52225.4 1207.72 2
-5 8 -1 50535.3 1018.78 6
-5 8 1 52296.6 1270.18 2
-5 -8 1 49799.6 1077.32 2
-5 -8 3 7974.12 453.021 2
5 8 3 7680.9 371.793 3
-5 8 3 6548.09 453.836 2
-5 -8 5 489.848 195.536 2
-5 8 5 383.661 230.076 2
-5 9 -6 210.726 231.601 1
5 -9 -4 3723.76 298.994 4
-5 9 -4 4130.74 335.175 1
-5 -9 -4 3701.56 354.191 6
5 -9 -2 13763.1 553.1 4
-5 9 -2 13561.3 466.471 1
-5 -9 -2 13929.5 575.057 6
-5 -9 0 57908 1122.1 2
-5 9 0 59090.4 1339.5 2
-5 9 0 54995.6 963.455 6
-5 -9 2 14448.8 576.711 2
5 9 2 14348.9 478.27 3
-5 9 2 14944 673.796 2
-5 9 4 3586.46 374.59 2
5 9 4 3979.06 320.187 3
-5 -9 4 4108.37 362.611 2
-5 9 6 124.625 212.371 2
5 -10 -5 2208.98 262.277 4
-5 -10 -5 1710.2 291.887 6
-5 10 -5 1654.81 274.354 1
5 -10 -3 10916.2 493.639 4
-5 -10 -3 9722.41 498.986 6
-5 10 -3 9781.86 437.329 1
5 -10 -1 691.248 190.578 4
-5 10 -1 1132.43 228.172 2
-5 10 1 723.875 191.778 2
-5 -10 1 901.575 168.728 2
5 10 3 9723.35 447.661 3
-5 10 3 10162.8 587.425 2
-5 -10 3 10564.2 509.854 2
5 10 5 1314.47 252.612 3
-5 10 5 1623.29 302.095 2
5 -11 -4 18538.9 666.715 4
-5 11 -4 20054.8 687.378 1
-5 -11 -4 18258.7 723.932 6
5 -11 -2 407.709 193.236 4
-5 11 0 3515.05 342.467 2
-5 11 2 508.893 189.124 2
5 11 2 499.731 163.65 3
-5 -11 2 506.921 168.923 2
5 11 4 19409.8 709.595 3
-5 11 4 18652.6 827.073 2
-5 11 6 863.042 269.234 2
5 -12 -5 21915.8 751.274 4
-5 12 -5 22916.6 789.58 1
-5 -12 -5 21423.7 833.005 6
5 -12 -3 18670.8 673.971 4
5 -12 -1 5716.85 399.436 4
-5 12 1 5334.86 426.603 2
5 12 3 19967.2 682.374 3
-5 12 3 20032.8 851.934 2
5 12 5 22262.8 849.779 3
-5 12 5 22288.9 955.639 2
5 -13 -4 32185.7 924.046 4
-5 -13 -4 31238.1 985.054 6
5 -13 -2 10879.6 528.107 4
-5 13 0 3167.96 350.029 2
-5 13 2 11797.8 658.386 2
5 13 2 11578.1 484.65 3
5 13 4 31656.5 962.191 3
-5 13 4 29490.9 1080.29 2
-5 13 6 925.913 287.89 2
5 -14 -5 1341.99 243.74 4
5 -14 -3 30647.8 916.429 4
5 -14 -1 1116.94 230.765 4
5 14 1 1285.06 197.326 3
-5 14 1 1290.67 281.697 2
5 14 3 31823.4 925.843 3
-5 14 3 31477.4 1120.29 2
-5 14 5 1434.93 310.62 2
5 14 5 1559.95 311.083 3
5 -15 -4 2040.04 284.691 4
5 -15 -2 39793.9 1090.63 4
5 -15 0 19467.7 775.187 4
-5 15 0 20596.3 848.687 2
-5 15 2 41328.9 1291.94 2
5 15 2 40376.7 991.094 3
5 15 4 2365.97 312.307 3
-5 15 4 2068.69 334.482 2
5 -16 -3 10234.7 541.152 4
5 -16 -1 49055.8 1272.56 4
-5 16 1 51929.4 1461.19 2
5 16 1 53622.3 1143.06 3
5 16 3 10294.4 541.404 3
-5 16 3 10679.6 683.625 2
-5 16 5 4456.74 468.608 2
5 -17 -4 2280.09 291.976 4
5 -17 -2 1783.81 309.381 4
5 -17 0 2576.29 343.247 4
-5 17 0 3130.13 397.927 2
5 17 2 2014.73 274.236 3
-5 17 2 1857.1 344.221 2
-5 17 4 2690.4 391.124 2
5 -18 -3 2374.1 323.404 4
5 -18 -1 15280.8 706.471 4
-5 18 1 15218.8 796.929 2
5 18 1 15612 597.878 3
5 18 3 2275.99 316.326 3
-5 18 3 2469.32 372.611 2
5 -19 -2 4363.62 405.836 4
-5 19 0 1738.58 319.743 2
5 -19 0 1477.25 280.142 4
-5 19 2 4687.56 495.972 2
5 19 2 4599.09 377.699 3
-5 20 1 1729.25 346.226 2
-6 0 -4 794.588 216.447 6
-6 0 -2 113660 1955.22 6
-6 0 -2 117828 1976.48 2
-6 0 0 185703 2893.3 2
-6 0 2 112388 2119.85 2
6 0 2 115345 1595.86 3
-6 0 4 798.84 246.017 2
-6 -1 -5 965.516 260.012 6
-6 1 -5 939.767 252.373 6
-6 -1 -3 -150.769 234.195 6
-6 1 -3 345.572 162.5 6
-6 -1 -3 326.785 121.794 2
-6 1 -3 321.681 135.642 2
-6 -1 -1 54741.2 1109.31 6
-6 -1 -1 54217.3 1190.14 2
-6 1 -1 53999.1 1084.46 6
-6 1 -1 53194.4 1210.5 2
-6 -1 1 52247.5 1260.72 2
-6 1 1 55584.7 1294.65 2
-6 -1 3 201.641 168.258 2
-6 1 3 115.115 189.58 2
-6 -1 5 718.466 245.253 2
-6 1 5 903.727 247.276 2
-6 -2 -4 3150.5 355.343 6
-6 2 -4 3976.92 376.645 6
-6 -2 -2 104656 1769.15 2
-6 -2 -2 102503 1807.07 6
-6 2 -2 102647 1824.63 6
-6 2 -2 103452 1857.9 2
-6 -2 0 15706.3 615.925 2
-6 2 0 15040.4 622.429 2
-6 2 2 105157 2023.9 2
6 2 2 102734 1504.91 3
-6 -2 4 3785.03 389.766 2
-6 2 4 3285.04 353.202 2
-6 -3 -5 17549 807.664 6
-6 3 -5 17616 822.256 6
-6 3 -3 7299.89 401.821 2
-6 -3 -3 6838.27 423.707 6
-6 3 -3 7587.03 445.517 6
-6 -3 -1 4448.6 312.323 2
-6 -3 -1 4456.87 317.601 6
-6 3 -1 4024.32 266.822 6
-6 -3 1 4458.2 341.498 2
-6 3 1 4623.51 366.459 2
-6 -3 3 7984.33 497.536 2
-6 3 3 7654.63 504.732 2
6 3 3 7366.92 330.214 3
-6 -3 5 18787.1 816.455 2
-6 3 5 16641.4 787.407 2
-6 4 -4 9611.12 582.083 1
-6 4 -4 7963.18 428.314 2
-6 -4 -4 7497.21 473.334 6
-6 4 -4 8803.44 537.471 6
-6 4 -2 46364.3 1123.61 2
-6 -4 -2 48352.3 998.759 2
-6 -4 -2 45255 1081.1 6
-6 4 -2 45865.5 1075.23 6
-6 -4 0 15965.9 595.716 2
-6 4 0 16654.5 470.481 6
-6 4 0 14998.3 634.304 2
-6 -4 2 48077.3 1200.57 2
-6 4 2 45058.2 1229.87 2
6 4 2 47893.4 889.237 3
-6 -4 4 8506.26 536.337 2
-6 4 4 7552.8 524.607 2
6 4 4 8116.67 391.39 3
-6 5 -5 170.703 244.185 1
-6 -5 -5 247.579 226.637 6
-6 5 -5 290.614 240.829 6
-6 5 -3 4931.03 383.242 1
-6 5 -3 4288.97 328.752 2
-6 -5 -3 4181.06 346.267 6
-6 5 -3 4592.41 362.423 6
-6 5 -1 2583.48 280.369 2
-6 -5 -1 2718.19 240.563 2
-6 5 -1 2230.52 207.679 6
-6 -5 1 2676.02 284.171 2
-6 5 1 2595.96 305.12 2
-6 -5 3 4569.93 395.143 2
-6 5 3 4504.19 406.967 2
6 5 3 4526.14 276.369 3
-6 -5 5 517.925 225.885 2
-6 5 5 381.351 227.589 2
-6 6 -4 4169.59 396.501 1
-6 6 -4 3891 319.807 2
-6 -6 -4 3490.92 362.737 6
-6 6 -4 3871.16 381.647 6
-6 6 -2 9324.91 490.407 2
-6 6 -2 10290.2 470.128 1
-6 -6 -2 9614.56 475.356 6
-6 6 -2 8981.15 448.956 6
-6 -6 0 4208.04 305.69 2
-6 6 0 3402.16 192.963 1
-6 6 0 3722.72 217.559 6
-6 6 0 4006.59 353.271 2
-6 -6 2 10027 522.93 2
-6 6 2 9466.89 546.544 2
6 6 2 9976.07 374.59 3
-6 -6 4 3639.25 365.484 2
-6 6 4 3367.96 387.746 2
6 6 4 3699.31 290.519 3
-6 -7 -5 8777.52 560.903 6
-6 7 -5 9942.09 610.117 1
-6 7 -5 9030.48 610.893 6
-6 7 -3 31449.9 942.176 2
-6 -7 -3 30430.1 904.545 6
-6 7 -3 31117.9 951.227 6
-6 -7 -1 28840.1 748.313 2
-6 7 -1 26733.1 873.892 2
-6 7 -1 26743.2 665.947 1
-6 7 -1 26985 709.13 6
-6 -7 1 27008.9 822.654 2
-6 7 1 27577.8 943.143 2
-6 -7 3 29589.1 934.016 2
-6 7 3 32287.3 1075.65 2
6 7 3 32039.3 805.029 3
-6 -7 5 8848.53 560.905 2
-6 7 5 7863.71 570.444 2
6 -8 -4 4644 359.3 4
-6 -8 -4 4350.09 388.263 6
-6 8 -4 4505.86 408.471 6
-6 8 -4 4916.58 394.029 1
-6 8 -2 20383 761.095 2
-6 -8 -2 19794.7 704.065 6
-6 8 -2 20132.8 682.429 6
-6 8 -2 21095 642.074 1
-6 -8 0 1121.28 184.926 2
-6 8 0 1212.97 261.725 2
-6 -8 2 20515.9 724.802 2
-6 8 2 18793 801.112 2
6 8 2 20647.6 592.823 3
-6 -8 4 4613.23 408.089 2
-6 8 4 4789.47 459.563 2
6 8 4 4826.06 346.362 3
-6 9 -5 6514.58 497.159 1
-6 -9 -5 5565.21 480.824 6
-6 9 -5 5556.99 489.053 6
-6 9 -3 16095.8 609.103 1
-6 9 -3 14803.8 647.155 2
-6 -9 -3 15475 655.662 6
-6 9 -3 14919.8 650.477 6
-6 -9 -1 43181 924.61 2
-6 9 -1 41033.7 827.291 1
-6 9 -1 40758 1155.65 2
-6 9 -1 40895.3 919.989 6
-6 -9 1 42241.9 1049.51 2
-6 9 1 41827.4 1222.85 2
-6 -9 3 15069.3 659.96 2
-6 9 3 14231.5 722.947 2
6 9 3 14482.7 542.446 3
-6 9 5 5605.01 506.588 2
6 9 5 5995.53 430.285 3
-6 -9 5 5887.52 476.556 2
6 -10 -4 4864.27 387.614 4
-6 -10 -4 5121.16 432.276 6
-6 10 -4 5315.69 390.617 1
-6 10 -4 5175.98 428.988 6
-6 10 -2 14299 489.851 1
-6 10 -2 13400.8 637.379 2
-6 10 -2 12603.2 549.071 6
-6 10 0 28729.9 985.777 2
-6 -10 0 28881.3 781.63 2
6 10 2 14191.7 507.201 3
-6 10 2 13830.6 710.747 2
-6 -10 2 13821.7 595.994 2
-6 10 4 5105.82 473.671 2
6 10 4 5322.37 379.273 3
-6 -10 4 5066.29 409.59 2
-6 11 -5 8989.67 536.447 1
-6 11 -5 8389.68 588.152 6
6 -11 -3 17943.3 727.469 4
-6 11 -3 17505.4 612.624 1
-6 11 -3 16800.6 693.791 6
-6 11 -1 23032.6 872.187 2
-6 11 1 22303.3 897.988 2
-6 -11 1 23198.8 732.1 2
6 11 3 16513.4 622.042 3
-6 11 3 16712.7 806.89 2
-6 -11 3 17890.4 711.007 2
-6 11 5 8159.86 622.378 2
6 11 5 8472.93 526.764 3
-6 12 -4 2924.37 295.702 1
6 -12 -4 2776.07 337.217 4
-6 -12 -4 2954.58 352.362 6
6 -12 -2 1798.25 291.817 4
-6 12 -2 2220.35 309.471 2
-6 12 -2 2518.24 263.73 6
-6 12 0 787.821 226.215 2
6 12 2 2441.31 260.688 3
-6 -12 2 2748.72 293.534 2
-6 12 2 2584.83 350.611 2
6 12 4 3027.03 332.07 3
-6 12 4 2553.73 393.852 2
6 -13 -5 4842.8 430.168 4
6 -13 -3 32473.2 1037.87 4
-6 13 -1 12063.6 663.684 2
-6 13 1 12463.5 700.31 2
6 13 3 30582.1 908.01 3
-6 13 3 32031.2 1183.95 2
6 -14 -4 3058.31 359.255 4
6 -14 -2 6320.53 466.212 4
-6 14 -2 7294.76 527.381 2
-6 14 0 989.358 265.388 2
6 14 2 6375.79 385.988 3
-6 14 2 7176.14 569.867 2
6 14 4 3183.25 353.974 3
-6 14 4 3627.53 461.627 2
6 -15 -3 10873.5 611.882 4
-6 15 -1 34822 1178.3 2
-6 15 1 33802.6 1207.26 2
6 15 1 35001.1 889.65 3
6 15 3 10347.2 556.312 3
-6 15 3 11240.8 725.112 2
6 -16 -2 8329.66 550.184 4
-6 16 0 2881.98 404.175 2
-6 16 2 8766.14 655.698 2
6 16 2 9013.54 478.923 3
-6 17 -1 850.081 291.104 2
6 17 1 1173.07 239.083 3
-6 17 1 665.123 300.856 2
-7 0 -5 -236.521 264.139 6
-7 0 -3 -353.498 224.984 6
-7 0 -1 211.635 175.554 6
-7 0 -1 114.777 154.487 2
-7 0 1 241.789 201.229 2
-7 0 3 140.95 205.307 2
-7 -1 -4 5461.67 440.176 6
-7 1 -4 5695.12 452.858 6
-7 -1 -2 5510.64 365.75 2
-7 -1 -2 5076.16 359.652 6
-7 1 -2 4732.28 341.34 6
-7 1 -2 5466.69 381.897 2
-7 -1 0 2277.81 293.242 2
-7 1 0 2101.35 284.725 2
-7 -1 2 5231.84 428.158 2
-7 1 2 6385.26 473.96 2
-7 -1 4 6124.08 510.468 2
-7 1 4 5756.74 479.454 2
-7 2 -5 2637.56 370.034 6
-7 -2 -3 8417.41 492.655 6
-7 2 -3 8060.39 490.391 6
-7 -2 -1 8972.25 486.778 2
-7 -2 -1 9136.4 449.322 6
-7 2 -1 8193.19 406.361 6
-7 2 -1 8337.86 490.997 2
-7 -2 1 8422.91 497.841 2
-7 2 1 8004.44 500.192 2
-7 -2 3 8586.37 549.336 2
-7 2 3 7673.76 526.906 2
-7 -3 -4 2846.74 342.794 6
-7 3 -4 3461.38 367.495 6
-7 -3 -2 20400.4 714.66 6
-7 3 -2 21659.9 714.521 6
-7 3 -2 22240.1 788.14 2
-7 -3 0 2527.03 285.496 2
-7 3 0 1737.2 266.091 2
-7 -3 2 20697.6 809.317 2
-7 3 2 21631.9 876.177 2
7 3 2 22499 557.938 3
-7 -3 4 3120.03 361.339 2
-7 3 4 3314.05 400.966 2
-7 4 -5 11315.7 743.997 1
-7 4 -5 8651.85 603.272 6
-7 4 -3 2506.85 293.881 2
-7 -4 -3 2251.47 308.666 6
-7 4 -3 2239.05 287.828 6
-7 4 -1 8927.4 414.224 6
-7 4 -1 9173.74 526.608 2
-7 -4 1 9418.66 518.696 2
-7 4 1 9400.57 563.403 2
-7 -4 3 2287.35 318.322 2
-7 4 3 2240.46 338.265 2
-7 -5 -4 2267.46 325.174 6
-7 5 -4 2435.64 329.532 6
-7 5 -4 2631.37 377.096 1
-7 5 -2 17278.7 718.083 2
-7 5 -2 17659.8 660.869 1
-7 -5 -2 16885.7 662.413 6
-7 5 -2 16015.1 622.638 6
-7 -5 0 5930.11 400.381 2
-7 5 0 6033.95 448.185 2
-7 -5 2 16214.4 701.517 2
-7 5 2 16747.4 771.341 2
7 5 2 16971.1 510.027 3
-7 -5 4 1975.98 322.793 2
-7 5 4 1894.53 341.912 2
-7 6 -5 5550.61 532.44 1
-7 6 -5 4652.05 469.086 6
-7 6 -3 8900.76 520.403 2
-7 -6 -3 9011.95 517.859 6
-7 6 -3 8664.49 503.988 6
-7 -6 -1 4623.89 329.896 2
-7 6 -1 3980.7 380.71 2
-7 -6 1 4190.65 361.037 2
-7 6 1 3727.86 381.686 2
-7 -6 3 9033.4 549.462 2
-7 6 3 8316.55 577.893 2
7 6 3 9431.92 422.65 3
-7 -7 -4 3779.33 389.677 6
-7 7 -4 3944.08 395.583 1
-7 7 -4 3503.33 374.854 6
-7 7 -2 9053.24 542.478 2
-7 7 -2 9468.37 478.898 6
-7 -7 0 3446.67 308.726 2
-7 7 0 2920.6 334.702 2
-7 -7 2 8787.7 518.115 2
-7 7 2 9721.53 615.15 2
7 7 2 10041.6 406.048 3
-7 -7 4 4067.4 412.999 2
-7 7 4 3655.37 433.757 2
-7 8 -3 4273.38 388.378 2
-7 -8 -3 4538.95 418.181 6
-7 8 -3 4073.16 360.45 6
-7 8 -3 4209.15 356.95 1
-7 8 -1 14650.6 708.198 2
-7 -8 1 14358.6 623.196 2
-7 8 1 13019 702.245 2
-7 -8 3 4135.18 387.349 2
-7 8 3 4223.92 454.2 2
7 8 3 4241.27 312.936 3
-7 9 -4 22.4374 186.868 6
-7 9 -4 -66.0644 171.528 1
-7 9 -4 89.6479 187.643 2
-7 9 -2 9080.61 562.202 2
-7 -9 0 8346.66 441.959 2
-7 9 0 8294.22 564.907 2
-7 -9 2 9483.12 531.511 2
-7 9 2 8893.56 607.75 2
7 9 2 8726.01 407.778 3
-7 -9 4 232.214 216.175 2
7 9 4 202.849 175.082 3
-7 10 -3 3761.59 385.252 2
-7 10 -3 3462.84 346.647 6
-7 10 -1 2522.94 347.527 2
-7 -10 1 3008.51 310.94 2
-7 10 1 2561.13 373.185 2
-7 10 3 3829.49 440.181 2
7 10 3 3469.11 311.265 3
-7 -10 3 3732.13 371.565 2
-7 11 -4 4133.44 417.761 2
-7 11 -4 4678.71 438.033 6
-7 11 -2 1847.52 317.829 2
-7 11 0 2068.27 331.11 2
7 11 2 1885.71 234.612 3
-7 11 2 1684.57 347.354 2
-7 -11 2 2215.42 296.861 2
7 11 4 4623.19 387.032 3
-7 12 -3 3776.24 413.349 2
-7 12 -1 2175.02 340.261 2
-7 12 1 1832.74 337.69 2
-7 -12 1 2515.7 284.852 2
7 12 3 3237.74 331.525 3
-7 -12 3 3861.62 383.841 2
-7 13 -2 3665.7 428.107 2
-7 13 0 1300.08 313.302 2
7 13 2 3190.12 299.644 3
-7 13 2 3574.14 460.451 2
-7 14 -1 1422.44 335.098 2
7 14 1 2096.84 264.427 3
-7 14 1 2071.85 376.106 2
-8 0 -4 15554.6 742.015 6
-8 0 -2 4690.6 384.061 6
-8 0 0 136230 2567.7 2
-8 0 2 4938.48 449.247 2
-8 -1 -3 194.609 193.534 6
-8 1 -3 31.0361 198.603 6
-8 -1 -1 12843.3 642.982 2
-8 1 -1 12363.9 638.654 2
-8 -1 1 11579.1 628.134 2
-8 1 1 11635.6 656.166 2
-8 -1 3 390.236 249.455 2
-8 1 3 473.855 234.278 2
-8 2 -4 18314.9 813.27 6
-8 2 -2 691.181 206.713 6
-8 2 -2 561.282 204.011 2
-8 -2 0 12397.5 629.511 2
-8 2 0 11962.7 648.601 2
-8 -2 2 652.073 228.321 2
-8 2 2 898.462 264.858 2
-8 -3 -3 6182.76 455.457 6
-8 3 -3 4534.23 386.825 6
-8 -3 -1 155.309 167.383 2
-8 3 -1 58.7834 186.446 2
-8 -3 1 269.961 201.627 2
-8 3 1 311.528 240.325 2
-8 -3 3 5758.99 486.592 2
-8 3 3 5047.19 474.284 2
-8 4 -4 14492.6 800.568 1
-8 4 -4 11032.1 649.695 6
-8 -4 -2 2927.39 332.962 6
-8 4 -2 2228.28 312.236 2
-8 -4 0 8533.33 516.075 2
-8 4 0 8663.45 568.65 2
-8 -4 2 2312.13 333.113 2
-8 4 2 2645.46 373.079 2
-8 -5 -3 1172.78 266.301 6
-8 5 -3 674.885 205.665 6
-8 5 -1 5159.03 458.186 2
-8 -5 1 5477.9 434.93 2
-8 5 1 4931.9 459.465 2
-8 -5 3 995.494 250.725 2
-8 6 -4 5518 465.465 6
-8 6 -2 4046.33 401.11 2
-8 -6 0 10377.3 550.916 2
-8 6 0 9988.12 621.818 2
-8 -6 2 5147.81 437.388 2
-8 6 2 4504.31 446.53 2
-8 7 -3 3741.39 393.146 2
-8 -7 -3 4454.88 428.834 6
-8 7 -1 9702.06 621.16 2
-8 -7 1 10182.3 559.566 2
-8 7 1 10418.8 659.894 2
-8 -7 3 2893.97 342.102 2
-8 8 -2 1089.64 287.15 2
-8 8 0 15030.3 791.231 2
-8 -8 2 1510.05 276.545 2
8 8 2 1276.73 200.856 3
-8 9 -3 6416.35 528.27 2
-8 9 -1 2923.61 393.562 2
-8 -9 1 2920.96 329.248 2
-8 9 1 3538.15 449.036 2
-8 10 -2 1094.82 307.539 2
-8 10 0 546.155 286.94 2
-8 -10 2 1366.45 276.719 2
8 10 2 1132.68 213.122 3
-8 11 -1 13637.2 784.519 2
8 11 1 13857.8 548.594 3
-8 -11 1 13733.5 633.193 2
8 12 2 2113.93 269.648 3
-8 -12 2 2434.42 318.136 2
-9 0 1 373.552 227.958 2
-9 -1 0 3341.16 385.326 2
-9 1 0 3455.61 406.516 2
-9 2 -1 2684.32 359.477 2
-9 -2 1 2558.59 356.241 2
-9 2 1 2803.03 390.824 2
-9 -3 0 3996.6 403.832 2
-9 3 0 3292.66 395.37 2
-9 4 -1 3169.04 387.552 2
-9 -4 1 3631.72 401.781 2
-9 6 -1 320.329 223.451 2
-9 -6 1 696.76 237.618 2
loop_
_publcif_info_exptl_table_extra_item
sin_theta_over_lambda_max
