#------------------------------------------------------------------------------
#$Date: 2019-11-24 04:12:18 +0200 (Sun, 24 Nov 2019) $
#$Revision: 236652 $
#$URL: file:///home/coder/svn-repositories/cod/cif/8/00/03/8000383.cif $
#------------------------------------------------------------------------------
#
# This file is available in the Crystallography Open Database (COD),
# http://www.crystallography.net/
#
# All data on this site have been placed in the public domain by the
# contributors.
#
data_8000383
loop_
_publ_author_name
'Andrzejewski, Micha\/l'
'Katrusiak, Andrzej'
_publ_section_title
;
 Piezochromic Porous Metal-Organic Framework.
;
_journal_issue                   1
_journal_name_full               'The journal of physical chemistry letters'
_journal_page_first              279
_journal_page_last               284
_journal_paper_doi               10.1021/acs.jpclett.6b02458
_journal_volume                  8
_journal_year                    2017
_chemical_formula_moiety         'C14 H18 Co N2 O5'
_chemical_formula_sum            'C14 H18 Co N2 O5'
_chemical_formula_weight         353.23
_chemical_name_common            AMU1
_chemical_name_systematic
;
Co(1,4-benzenedicarboxylate)(1,4-diazabicyclo[2.2.2]octane)H2O
;
_space_group_crystal_system      triclinic
_space_group_IT_number           1
_space_group_name_Hall           'P 1'
_space_group_name_H-M_alt        'P 1'
_atom_sites_solution_hydrogens   mixed
_atom_sites_solution_primary     direct
_audit_creation_date             2016-07-12
_audit_creation_method
;
Olex2 1.2
(compiled 2016.02.19 svn.r3266 for OlexSys, GUI svn.r5155)
;
_cell_angle_alpha                88.725(13)
_cell_angle_beta                 98.587(15)
_cell_angle_gamma                94.902(11)
_cell_formula_units_Z            1
_cell_length_a                   5.6799(8)
_cell_length_b                   6.9641(7)
_cell_length_c                   10.479(3)
_cell_measurement_reflns_used    911
_cell_measurement_temperature    296(2)
_cell_measurement_theta_max      61.73
_cell_measurement_theta_min      5.872
_cell_volume                     408.34(14)
_computing_molecular_graphics    'Olex2 (Dolomanov et al., 2009)'
_computing_publication_material  'Olex2 (Dolomanov et al., 2009)'
_computing_structure_refinement  'ShelXL (Sheldrick, 2015)'
_computing_structure_solution    'ShelXT (Sheldrick, 2015)'
_diffrn_ambient_temperature      296(2)
_diffrn_measured_fraction_theta_full 0.263
_diffrn_measured_fraction_theta_max 0.184
_diffrn_measurement_device_type  'multiwire proportional'
_diffrn_measurement_method       'phi and omega scans'
_diffrn_radiation_monochromator  graphite
_diffrn_radiation_type           MoK\a
_diffrn_radiation_wavelength     0.71073
_diffrn_reflns_av_R_equivalents  0.0400
_diffrn_reflns_av_unetI/netI     0.0505
_diffrn_reflns_Laue_measured_fraction_full 0.263
_diffrn_reflns_Laue_measured_fraction_max 0.184
_diffrn_reflns_limit_h_max       7
_diffrn_reflns_limit_h_min       -7
_diffrn_reflns_limit_k_max       9
_diffrn_reflns_limit_k_min       -9
_diffrn_reflns_limit_l_max       8
_diffrn_reflns_limit_l_min       -8
_diffrn_reflns_number            2635
_diffrn_reflns_point_group_measured_fraction_full 0.263
_diffrn_reflns_point_group_measured_fraction_max 0.184
_diffrn_reflns_theta_full        26.000
_diffrn_reflns_theta_max         30.865
_diffrn_reflns_theta_min         2.936
_exptl_absorpt_coefficient_mu    1.074
_exptl_absorpt_correction_T_max  0.898
_exptl_absorpt_correction_T_min  0.879
_exptl_absorpt_correction_type   multi-scan
_exptl_absorpt_process_details
;
Data were collected and reduced by program CrysAlisPro, 
and SCALE3 ABSPACK was used for absorption correction
;
_exptl_crystal_colour            yellow
_exptl_crystal_density_diffrn    1.436
_exptl_crystal_description       plate
_exptl_crystal_F_000             183
_exptl_crystal_size_max          0.3
_exptl_crystal_size_mid          0.1
_exptl_crystal_size_min          0.1
_refine_diff_density_max         2.306
_refine_diff_density_min         -0.893
_refine_diff_density_rms         0.266
_refine_ls_abs_structure_details
;
 Refined as a perfect inversion twin.
;
_refine_ls_abs_structure_Flack   0.5
_refine_ls_extinction_method     none
_refine_ls_goodness_of_fit_ref   1.777
_refine_ls_hydrogen_treatment    constr
_refine_ls_matrix_type           full
_refine_ls_number_parameters     70
_refine_ls_number_reflns         911
_refine_ls_number_restraints     28
_refine_ls_restrained_S_all      1.911
_refine_ls_R_factor_all          0.1653
_refine_ls_R_factor_gt           0.1587
_refine_ls_shift/su_max          0.000
_refine_ls_shift/su_mean         0.000
_refine_ls_structure_factor_coef Fsqd
_refine_ls_weighting_details
'w=1/[\s^2^(Fo^2^)+(0.2000P)^2^] where P=(Fo^2^+2Fc^2^)/3'
_refine_ls_weighting_scheme      calc
_refine_ls_wR_factor_gt          0.3735
_refine_ls_wR_factor_ref         0.3847
_reflns_Friedel_coverage         1.000
_reflns_Friedel_fraction_full    0.263
_reflns_Friedel_fraction_max     0.184
_reflns_number_gt                838
_reflns_number_total             911
_reflns_threshold_expression     'I > 2\s(I)'
_cod_data_source_file            jz6b02458_si_004.cif
_cod_data_source_block           232GPa_P1
_cod_original_cell_volume        408.34(12)
_cod_database_code               8000383
_shelx_space_group_comment
;
The symmetry employed for this shelxl refinement is uniquely defined
by the following loop, which should always be used as a source of
symmetry information in preference to the above space-group names.
They are only intended as comments.
;
_olex2_refinement_description
;
1. Fixed Uiso
 At 1.2 times of:
  All C(H) groups, All C(H,H) groups
 At 1.5 times of:
  All O(H,H) groups
2. Restrained distances
 C8-O3
 1.25 with sigma of 0.002
 C7-O1
 1.25 with sigma of 0.002
 O2-C7
 1.25 with sigma of 0.002
 C7-C1
 1.48 with sigma of 0.002
 C4-C8
 1.48 with sigma of 0.002
 C4-C5
 1.38 with sigma of 0.002
 C3-C4
 1.38 with sigma of 0.002
 C2-C1
 1.38 with sigma of 0.002
 C1-C6
 1.38 with sigma of 0.002
 C2-C3
 1.38 with sigma of 0.002
 C6-C5
 1.38 with sigma of 0.002
 C13-C11 \\sim C11-C9
 with sigma of 0.02
 C12-C14 \\sim C14-C10
 with sigma of 0.02
 C9-C13 \\sim C13-C11
 with sigma of 0.02
 N9-C13 \\sim N10-C14
 with sigma of 0.02
 O4-C4 \\sim C4-O3
 with sigma of 0.02
3. Restrained planarity
 O2, C7, O1, C1, C2, C3, C4, C5, C6, C8, O3
 with sigma of 0.1
4. Uiso/Uaniso restraints and constraints
Uiso(N9) = Uiso(N10)
Uiso(O3) = Uiso(O2) = Uiso(O1)
Uiso(C9) = Uiso(C10) = Uiso(C11) = Uiso(C12) = Uiso(C14) = Uiso(C13)
5.a Rotating group:
 O1W(H1WA,H1WB)
5.b Secondary CH2 refined with riding coordinates:
 C11(H11A,H11B), C9(H9A,H9B), C12(H12A,H12B), C14(H14A,H14B), C10(H10A,H10B),
 C13(H13A,H13B)
5.c Aromatic/amide H refined with riding coordinates:
 C6(H6), C2(H2), C3(H3), C5(H5)
5.d Fitted hexagon refined as free rotating group:
 C6(C1,C2,C3,C4,C5)
;
_shelx_hkl_file
;
   7   3  -6   45.18   24.08
   7   3  -5   18.88   18.63
   7   3  -5   21.24   13.78
   7   3  -4   41.38   17.85
   7   3  -4    3.95   16.62
   7   2  -6   -5.93   14.48
   7   2  -6   59.24   26.38
   7   2  -5    7.42   21.24
   7   2  -5   16.04   15.74
   7   2  -5  -11.04   14.59
   7   2  -4   39.88   18.91
   7   2  -4    7.42   12.02
   7   1  -6   31.81   15.49
   7   1  -5   32.09   20.02
   7   1  -5   11.07   12.70
   7   1  -5   36.25   16.35
   7   1  -4   26.38   17.25
   7   1  -4   41.61   15.61
   7   0  -5   41.34   17.73
   7   0  -5   21.04   19.59
   6   6  -4   44.45   15.19
   6   6  -3   95.64   20.36
   6   6  -2   82.17   21.32
   6   5  -5    5.10   12.32
   6   5  -4   18.53   16.77
   6   5  -4   50.28   15.57
   6   5  -3   32.48   16.09
   6   5  -3   33.29   15.72
   6   5  -2   25.57   14.98
   6   5  -2   25.29   12.87
   6   4  -6   76.99   17.88
   6   4  -5   56.60   18.55
   6   4  -4   60.02   17.75
   6   4  -3  182.76   26.17
   6   4  -2  135.72   21.60
   6   4  -2  137.40   25.47
   6   3  -6  120.26   29.14
   6   3  -6  135.02   23.44
   6   3  -5   53.98   16.07
   6   3  -5   97.68   23.98
   6   3  -5   54.26   16.95
   6   3  -4  117.26   20.72
   6   3  -4  188.49   29.67
   6   3  -4  130.42   22.80
   6   3  -3  137.84   22.85
   6   3  -3  141.46   23.26
   6   3  -3  194.40   30.25
   6   3  -2  120.26   22.48
   6   2  -6    9.56   15.72
   6   2  -6   31.46   15.24
   6   2  -6   -9.05   13.22
   6   2  -5   50.28   22.07
   6   2  -5   20.12   13.40
   6   2  -5   45.06   14.71
   6   2  -4   45.51   15.92
   6   2  -4   55.51   16.97
   6   2  -4   57.85   20.36
   6   2  -3  138.23   26.28
   6   2  -3  111.23   20.99
   6   2  -3   93.64   18.68
   6   1  -7   52.70   17.80
   6   1  -7   55.99   22.66
   6   1  -6   60.70   16.75
   6   1  -6   36.06   13.73
   6   1  -6   51.52   21.07
   6   1  -5  120.34   26.05
   6   1  -5  100.72   19.44
   6   1  -5   83.04   19.54
   6   1  -4   94.13   18.58
   6   1  -4  101.15   20.82
   6   1  -3  186.41   29.29
   6   1  -3  134.87   20.66
   6   0  -7   36.21   25.40
   6   0  -7  117.85   19.44
   6   0  -6  138.79   20.36
   6   0  -6   33.01   27.56
   6   0  -5   25.69   28.81
   6   0  -5   85.86   19.82
   6   0  -4  116.11   22.50
   6   0  -4   85.97   28.66
   6   0  -3  104.45   18.70
   6  -1  -8   58.69   23.74
   6  -1  -7   50.09   16.24
   6  -1  -7   46.36   20.59
   6  -1  -7   36.25   14.26
   6  -1  -6   95.80   24.89
   6  -1  -6  103.23   21.47
   6  -1  -6   50.49   16.90
   6  -1  -5   75.81   19.81
   6  -1  -5   73.95   18.25
   6  -1  -5  108.87   25.57
   6  -1  -4   65.12   16.06
   6  -1  -4   82.92   22.78
   6  -2  -8   22.28   17.73
   6  -2  -8   18.71   13.22
   6  -2  -7   -9.07   17.10
   6  -2  -7    5.61   12.19
   6  -2  -7    4.03   13.30
   6  -2  -6   50.16   17.70
   6  -2  -6   68.44   19.44
   6  -2  -6   42.26   19.09
   6  -2  -5    0.96   12.44
   6  -2  -5   25.02   16.01
   6  -2  -5   30.47   14.86
   6  -3  -8   89.01   26.03
   6  -3  -7   19.97   13.80
   6  -3  -7   22.50   17.92
   6  -3  -7   37.79   17.90
   6  -3  -6   23.25   15.42
   6  -3  -6   75.66   23.76
   6  -3  -6   56.88   18.35
   6  -3  -5   69.42   21.17
   6  -3  -5   21.83   12.25
   5   7  -3   12.40   12.95
   5   7  -2   43.52   16.39
   5   7  -2   21.67   12.88
   5   7  -1   62.61   19.81
   5   6  -4   44.35   15.77
   5   6  -4   32.19   13.83
   5   6  -3   46.22   15.38
   5   6  -3   34.95   15.52
   5   6  -2    6.26   11.17
   5   6  -2   43.27   15.03
   5   6  -1   98.49   19.69
   5   6  -1   98.31   20.16
   5   6   0    2.66   11.82
   5   6   0   24.39   14.08
   5   5  -4   40.96   13.35
   5   5  -4   44.22   15.66
   5   5  -3   48.98   14.61
   5   5  -3   32.08   13.00
   5   5  -2   19.33   11.99
   5   5  -2   -3.14   11.31
   5   5  -1   32.24   12.75
   5   5  -1   30.50   14.11
   5   5   0   14.41   10.98
   5   5   0    5.78    9.90
   5   4  -5   16.89   13.42
   5   4  -4   17.17   10.48
   5   4  -4    8.98    9.66
   5   4  -3   86.84   16.17
   5   4  -3  119.83   20.34
   5   4  -2    8.09    9.60
   5   4  -2   35.28   10.79
   5   4  -1   99.39   17.70
   5   4  -1  141.50   20.39
   5   3  -5   90.72   17.65
   5   3  -5   71.55   14.63
   5   3  -4  292.04   32.14
   5   3  -4  225.96   22.81
   5   3  -4  228.60   25.39
   5   3  -4  215.67   22.98
   5   3  -3  107.89   17.43
   5   3  -3  111.05   15.84
   5   3  -3  107.03   18.45
   5   3  -3  139.75   22.42
   5   3  -2  106.16   17.72
   5   3  -2  159.15   23.54
   5   3  -2  110.12   16.79
   5   3  -1   92.07   16.06
   5   2  -6  290.78   29.12
   5   2  -5   86.57   16.90
   5   2  -5   49.31   13.13
   5   2  -4   21.45   10.79
   5   2  -4   18.21   10.83
   5   2  -4   14.66   13.00
   5   2  -3  181.91   22.30
   5   2  -3  153.68   20.51
   5   2  -2   30.14    9.12
   5   2  -2   39.30   14.20
   5   2  -1   28.76    9.81
   5   1  -6  290.48   28.46
   5   1  -6  322.78   29.52
   5   1  -5    6.99   10.16
   5   1  -5    7.64    8.45
   5   1  -5   -2.84   13.22
   5   1  -4  135.34   19.84
   5   1  -4  168.54   25.30
   5   1  -4  120.18   17.93
   5   1  -3  153.52   23.05
   5   1  -3  116.56   16.90
   5   1  -2  254.77   28.97
   5   0  -6  508.09   35.95
   5   0  -6  525.79   37.14
   5   0  -6  552.94   36.16
   5   0  -5  469.24   33.12
   5   0  -5  371.79   31.26
   5   0  -5  476.73   31.98
   5   0  -4   66.43   26.18
   5   0  -4  107.71   20.14
   5   0  -4  132.88   19.39
   5   0  -3  672.35   38.82
   5   0  -3  249.49   53.31
   5   0  -2  126.72   26.77
   5  -1  -7   96.30   16.90
   5  -1  -7   96.48   18.05
   5  -1  -6  154.28   24.84
   5  -1  -6  137.74   22.53
   5  -1  -6  178.36   31.13
   5  -1  -5   22.07   15.08
   5  -1  -5   23.76   11.69
   5  -1  -5   20.61   12.09
   5  -1  -4  141.71   23.66
   5  -1  -4  115.01   17.97
   5  -1  -3  213.79   23.10
   5  -1  -3  286.88   31.63
   5  -2  -7  123.25   20.29
   5  -2  -7  133.71   26.47
   5  -2  -7   98.00   20.16
   5  -2  -6   66.35   21.07
   5  -2  -6   50.59   16.60
   5  -2  -6   35.00   14.71
   5  -2  -5  164.54   21.87
   5  -2  -5  205.42   27.33
   5  -2  -5  148.35   22.40
   5  -2  -4   41.31   15.72
   5  -2  -4   48.72   14.13
   5  -2  -3  405.30   36.54
   5  -2  -3  317.55   27.98
   5  -3  -8   91.39   19.11
   5  -3  -7  172.05   25.24
   5  -3  -7  175.80   24.34
   5  -3  -6  130.41   21.30
   5  -3  -6  115.21   21.30
   5  -3  -6  175.37   26.58
   5  -3  -5  171.75   25.39
   5  -3  -5  230.41   29.79
   5  -3  -5  182.44   24.54
   5  -3  -4  194.94   24.03
   5  -3  -4  232.57   30.15
   5  -4  -8   10.76   12.12
   5  -4  -7   82.99   20.77
   5  -4  -6   31.20   14.23
   5  -4  -5   48.70   14.79
   5  -4  -4  103.77   21.78
   5  -4  -4  127.53   20.90
   5  -5  -6   33.44   15.51
   5  -5  -5   72.94   18.70
   4   8   1   19.56   13.30
   4   7  -3   57.15   14.83
   4   7  -2  131.87   21.52
   4   7  -1   66.53   16.21
   4   7   0   60.29   15.86
   4   7   0   53.63   15.49
   4   7   0   27.89   11.54
   4   7   1   76.78   18.35
   4   7   1   47.74   13.40
   4   6  -3   75.41   15.87
   4   6  -3   64.52   15.54
   4   6  -2  144.25   20.36
   4   6  -2  188.73   23.13
   4   6  -1  114.96   19.43
   4   6  -1  118.27   18.73
   4   6   0  120.97   19.84
   4   6   0  115.94   18.96
   4   6   0  136.86   19.34
   4   6   0  106.48   17.50
   4   6   1   90.46   17.27
   4   6   1   64.85   15.76
   4   6   1   65.22   15.39
   4   5  -4   47.87   13.43
   4   5  -4   50.82   13.53
   4   5  -3   57.12   14.93
   4   5  -3   46.94   13.58
   4   5  -2   41.46   13.00
   4   5  -2   34.09   11.11
   4   5  -1   89.31   15.81
   4   5  -1   97.68   16.64
   4   5   0   57.38   13.38
   4   5   0   62.78   14.69
   4   5   1   74.48   15.92
   4   5   1   96.98   15.77
   4   4  -4   43.62   12.37
   4   4  -4   38.67   11.56
   4   4  -3   79.07   14.54
   4   4  -3   80.76   14.41
   4   4  -2  240.89   22.48
   4   4  -2  226.74   22.23
   4   4  -1  191.06   20.66
   4   4  -1  191.47   20.04
   4   4   0  133.81   17.92
   4   3  -5  183.42   21.98
   4   3  -4  124.83   16.16
   4   3  -4  135.62   18.20
   4   3  -4  103.96   14.78
   4   3  -3  283.04   22.98
   4   3  -3  298.15   25.47
   4   3  -3  259.27   20.97
   4   3  -2  195.86   20.39
   4   3  -2  204.16   19.33
   4   3  -2  192.20   18.00
   4   3  -1  380.66   25.97
   4   3  -1  486.34   32.69
   4   3   0  243.88   21.44
   4   2  -5   52.88   12.47
   4   2  -5   41.13   11.21
   4   2  -4   90.74   14.61
   4   2  -4   96.98   12.78
   4   2  -4   75.10   12.92
   4   2  -3   62.00   12.25
   4   2  -3   56.14   10.59
   4   2  -3   44.00   10.34
   4   2  -3   68.03   14.63
   4   2  -2   67.58   10.54
   4   2  -2   84.80   15.87
   4   2  -1  252.69   24.14
   4   2  -1  198.30   17.65
   4   2   0   73.65   12.00
   4   1  -5   21.90    8.73
   4   1  -5   22.95    9.50
   4   1  -4   17.85    8.87
   4   1  -4   17.68    6.86
   4   1  -4   27.33    9.95
   4   1  -3  181.25   22.08
   4   1  -3  140.15   16.40
   4   1  -3  140.37   13.30
   4   1  -3  148.09   14.28
   4   1  -2   81.28   10.39
   4   1  -2   77.49   10.73
   4   1  -2   91.64   15.71
   4   1  -1  408.22   30.92
   4   1  -1  268.81   17.80
   4   0  -6  889.73   40.66
   4   0  -5  621.89   34.10
   4   0  -5  684.44   34.14
   4   0  -4  419.49   28.33
   4   0  -4  420.67   28.44
   4   0  -3  230.77   22.65
   4   0  -3  295.20   23.21
   4   0  -2  120.56   25.22
   4   0  -2  199.98   18.91
   4   0  -1  244.11   18.28
   4  -1  -6  265.76   24.47
   4  -1  -5   41.19   11.21
   4  -1  -5   20.32   10.58
   4  -1  -5   32.61    9.43
   4  -1  -4    1.26    7.17
   4  -1  -4   23.29    9.02
   4  -1  -4   19.76   10.10
   4  -1  -4   18.43   11.37
   4  -1  -3   38.11   11.47
   4  -1  -3   40.63   10.16
   4  -1  -3   41.69    9.40
   4  -1  -2  161.02   20.02
   4  -1  -2  130.51   15.86
   4  -2  -6  214.37   23.74
   4  -2  -5  129.72   17.50
   4  -2  -5  126.69   18.63
   4  -2  -5  161.17   21.34
   4  -2  -5  109.67   14.45
   4  -2  -4   99.07   13.52
   4  -2  -4   80.89   14.43
   4  -2  -4   85.79   14.68
   4  -2  -4  102.73   18.46
   4  -2  -3  148.17   15.82
   4  -2  -3  164.86   21.10
   4  -2  -3  140.97   17.42
   4  -2  -2   79.33   14.15
   4  -3  -7  187.32   19.76
   4  -3  -7  186.94   23.23
   4  -3  -6  372.12   29.92
   4  -3  -6  461.43   34.14
   4  -3  -6  458.36   29.80
   4  -3  -5   89.78   14.56
   4  -3  -5   94.62   17.58
   4  -3  -5  130.79   21.09
   4  -3  -5   99.19   16.17
   4  -3  -4  180.12   20.95
   4  -3  -4  150.98   17.80
   4  -3  -4  165.87   22.00
   4  -3  -4  145.23   19.63
   4  -3  -3  181.58   20.42
   4  -3  -3  177.01   19.38
   4  -3  -3  234.34   25.42
   4  -3  -2  223.44   22.07
   4  -4  -7   35.18   11.51
   4  -4  -7   35.07   13.17
   4  -4  -6   34.57   13.35
   4  -4  -6   15.26    9.58
   4  -4  -5   40.85   13.40
   4  -4  -5   19.28   10.29
   4  -4  -4   -2.72    8.24
   4  -4  -4   19.81   12.57
   4  -4  -4   13.08   12.50
   4  -4  -4   -0.17    8.95
   4  -4  -3  234.18   24.49
   4  -5  -7  102.88   21.05
   4  -5  -7  110.35   19.11
   4  -5  -6  108.34   19.39
   4  -5  -6  142.11   21.98
   4  -5  -5   49.08   14.73
   4  -5  -5   44.05   14.31
   4  -5  -4   42.62   13.62
   4  -5  -4   47.17   13.03
   4  -6  -7   70.00   17.55
   4  -6  -7   64.17   20.01
   4  -6  -6   18.43   12.74
   4  -6  -6  -70.20   55.17
   4  -6  -5   46.34   14.23
   4  -6  -5   38.25   16.82
   3   8  -1   25.44   11.54
   3   8  -1   45.00   15.44
   3   8  -1   33.95   13.65
   3   8   0   17.32   11.26
   3   8   0    4.63   11.69
   3   8   0   15.89   12.72
   3   8   1   62.45   17.17
   3   8   1   63.21   16.85
   3   8   1   87.40   18.13
   3   8   2   10.71   13.28
   3   8   2   -4.40   11.44
   3   8   2   19.78   11.41
   3   7  -2  145.80   20.67
   3   7  -2  146.89   20.79
   3   7  -1   75.21   16.01
   3   7  -1   83.65   16.26
   3   7  -1   74.35   15.21
   3   7   0   28.61   13.07
   3   7   0   20.54   10.44
   3   7   1  112.47   19.99
   3   7   1   98.86   17.75
   3   7   1   98.13   18.55
   3   7   2   36.84   13.27
   3   7   2  110.38   24.19
   3   6  -3  280.29   24.86
   3   6  -3  225.94   23.56
   3   6  -2  203.93   21.88
   3   6  -2  251.51   24.51
   3   6  -2  237.07   21.72
   3   6  -2  258.65   23.59
   3   6  -1  224.18   22.10
   3   6  -1  225.51   23.48
   3   6  -1  223.67   21.95
   3   6  -1  227.42   23.53
   3   6   0   58.96   13.65
   3   6   0   86.72   15.94
   3   6   0   64.82   13.53
   3   6   1  245.59   24.99
   3   6   1  236.02   23.63
   3   6   1  250.27   24.49
   3   6   2  111.56   18.16
   3   6   2   93.91   16.07
   3   5  -3   78.10   14.33
   3   5  -3   80.25   12.93
   3   5  -3   83.70   14.51
   3   5  -2  109.58   15.39
   3   5  -2  111.28   15.77
   3   5  -2   97.78   13.71
   3   5  -2   94.14   13.43
   3   5  -1  100.09   14.23
   3   5  -1  105.75   15.08
   3   5  -1  118.19   16.37
   3   5  -1  110.70   14.51
   3   5   0   50.39   11.69
   3   5   0   48.40   11.51
   3   5   0   57.57   11.51
   3   5   0   61.07   12.50
   3   5   1   47.44   11.82
   3   5   1   66.35   12.97
   3   5   1   52.53   12.27
   3   5   2   43.34   12.34
   3   5   2   46.19   11.57
   3   4  -3  459.87   24.22
   3   4  -3  436.10   27.53
   3   4  -3  455.47   28.84
   3   4  -2  694.42   34.04
   3   4  -2  673.28   28.86
   3   4  -2  701.54   33.89
   3   4  -2  751.27   30.65
   3   4  -1  330.03   21.42
   3   4  -1  332.49   23.61
   3   4  -1  302.88   20.29
   3   4  -1  324.59   23.23
   3   4   0  393.44   23.23
   3   4   0  334.17   24.16
   3   4   0  351.83   22.40
   3   4   1  106.23   14.59
   3   4   1  119.46   14.01
   3   3  -4  637.48   33.82
   3   3  -3  453.70   20.44
   3   3  -3  403.30   24.14
   3   3  -3  433.36   26.37
   3   3  -3  357.71   20.85
   3   3  -2  805.89   29.77
   3   3  -2  901.46   35.17
   3   3  -2  974.24   29.24
   3   3  -2  924.48   28.82
   3   3  -2  884.30   35.95
   3   3  -1  554.81   23.10
   3   3  -1  572.86   23.08
   3   3  -1  557.45   27.74
   3   3   0  310.75   18.02
   3   3   0  310.36   21.05
   3   3   0  294.82   17.87
   3   3   1  375.53   20.87
   3   3   1  339.89   22.83
   3   2  -4  122.04   13.48
   3   2  -4  155.58   16.17
   3   2  -3  352.46   20.52
   3   2  -3  368.02   23.05
   3   2  -3  335.11   20.94
   3   2  -2  839.35   32.99
   3   2  -2  883.50   31.40
   3   2  -2  817.18   21.73
   3   2  -2  873.26   22.50
   3   2  -2  850.94   22.33
   3   2  -1  113.45    8.80
   3   2  -1   96.78   11.11
   3   2  -1  133.63   14.81
   3   2   0  269.93   14.50
   3   2   0  278.73   18.23
   3   1  -4  131.75   14.43
   3   1  -4  111.56   13.03
   3   1  -3  542.99   26.52
   3   1  -3  555.68   22.23
   3   1  -3  487.50   25.25
   3   1  -2 1883.09   38.39
   3   1  -2 1845.05   38.79
   3   1  -1  447.67   13.35
   3   1  -1  441.76   19.49
   3   0  -5  441.63   24.26
   3   0  -5  301.61   17.82
   3   0  -4  799.10   31.43
   3   0  -4  843.65   31.36
   3   0  -3  995.87   34.90
   3   0  -3 1004.42   25.22
   3   0  -3  915.41   25.19
   3   0  -2 1457.61   34.35
   3   0  -2 1684.86   46.74
   3   0  -1  817.30   32.48
   3   0  -1  574.97   44.00
   3  -1  -5   70.86   11.77
   3  -1  -5   83.02   10.14
   3  -1  -4   59.89    8.57
   3  -1  -4   59.57    8.82
   3  -1  -4   49.96   10.83
   3  -1  -3  652.46   23.74
   3  -1  -3  648.51   28.44
   3  -1  -3  652.63   25.54
   3  -1  -2 1312.90   33.01
   3  -1  -2 1297.65   38.82
   3  -1  -1  426.30   22.81
   3  -1  -1  540.53   30.02
   3  -2  -6   92.63   12.32
   3  -2  -5   58.54   11.74
   3  -2  -5   45.83    9.25
   3  -2  -4  210.78   16.35
   3  -2  -4  223.92   19.03
   3  -2  -4  204.54   18.53
   3  -2  -3  198.46   13.60
   3  -2  -3  179.72   14.94
   3  -2  -3  248.62   21.67
   3  -2  -3  202.13   17.48
   3  -2  -2  364.98   20.99
   3  -2  -2  443.98   27.73
   3  -2  -2  373.15   22.88
   3  -2  -1  318.86   21.40
   3  -3  -6  179.67   18.70
   3  -3  -5  251.16   21.02
   3  -3  -5  306.50   22.85
   3  -3  -4  257.22   20.09
   3  -3  -4  282.43   25.12
   3  -3  -4  250.72   21.65
   3  -3  -4  224.83   19.74
   3  -3  -3  513.37   27.76
   3  -3  -3  477.42   27.93
   3  -3  -2  498.21   27.58
   3  -3  -2  481.84   28.28
   3  -4  -7  140.20   18.60
   3  -4  -6  109.77   17.88
   3  -4  -6   82.49   14.53
   3  -4  -5   43.02   12.80
   3  -4  -5   30.97   10.44
   3  -4  -4   82.95   14.18
   3  -4  -4   69.50   13.43
   3  -4  -3   93.88   14.94
   3  -4  -3  103.49   14.94
   3  -4  -2  304.16   24.42
   3  -4  -2  341.47   25.49
   3  -5  -7   72.62   16.22
   3  -5  -7  102.38   19.97
   3  -5  -6  166.10   20.75
   3  -5  -6  165.84   21.90
   3  -5  -5   72.89   15.38
   3  -5  -5  105.96   17.92
   3  -5  -4   54.31   13.20
   3  -5  -4   34.50   11.09
   3  -5  -3   56.78   13.20
   3  -5  -3   58.40   12.80
   3  -6  -7   36.89   14.59
   3  -6  -7   43.24   15.26
   3  -6  -6   49.65   14.50
   3  -6  -6   32.97   14.86
   3  -6  -5   44.41   13.93
   3  -6  -5   53.55   14.86
   3  -6  -4   40.94   13.27
   3  -6  -4   19.79   11.14
   3  -6  -3  121.11   18.48
   3  -7  -6   60.55   18.33
   3  -7  -6   85.94   18.50
   3  -7  -5   18.50   12.57
   3  -7  -5   41.66   17.32
   3  -7  -4   16.26   11.26
   2   9   1    0.02   11.07
   2   8   0   95.84   17.67
   2   8   0   68.14   16.62
   2   8   0   67.99   15.34
   2   8   1   58.16   15.19
   2   8   1   51.64   14.81
   2   8   1   67.46   17.04
   2   8   2   73.04   17.47
   2   8   2  111.53   16.97
   2   8   3   -2.14   10.03
   2   8   3   20.24   10.74
   2   7  -1   67.48   14.15
   2   7  -1   52.63   12.17
   2   7  -1   64.11   13.83
   2   7   0   99.47   17.17
   2   7   0  103.62   17.38
   2   7   0  111.11   17.20
   2   7   1   52.15   14.13
   2   7   1   45.18   12.64
   2   7   1   48.57   14.56
   2   7   2   65.58   14.05
   2   7   2   76.41   15.79
   2   7   2   79.98   15.97
   2   7   3   82.57   16.21
   2   7   3   89.05   17.90
   2   7   3   87.48   16.94
   2   6  -2  151.76   17.43
   2   6  -2  136.23   17.97
   2   6  -1  117.26   16.02
   2   6  -1  124.03   16.65
   2   6  -1  138.41   17.75
   2   6   0  307.02   25.54
   2   6   0  296.56   24.59
   2   6   0  293.72   24.01
   2   6   1  286.28   25.44
   2   6   1  315.69   25.14
   2   6   1  315.14   25.54
   2   6   2   98.96   16.50
   2   6   2  100.68   15.61
   2   6   2   90.56   14.93
   2   6   3  222.52   22.75
   2   6   3  224.37   24.34
   2   6   3  216.31   22.66
   2   5  -2   67.69   11.62
   2   5  -2   79.13   13.23
   2   5  -2   69.14   11.61
   2   5  -1   32.76    9.65
   2   5  -1   38.60    9.46
   2   5  -1   50.64   10.33
   2   5  -1   39.50    9.33
   2   5   0   26.77    7.75
   2   5   0   32.43    9.43
   2   5   0   28.24    8.32
   2   5   0   29.64    8.93
   2   5   1   59.52   11.04
   2   5   1   58.68   10.43
   2   5   1   55.77   11.34
   2   5   1   61.52   11.27
   2   5   2   21.29    8.72
   2   5   2   21.40    9.25
   2   5   2    9.35    6.89
   2   5   3  109.25   15.49
   2   5   3   94.87   14.53
   2   4  -2  435.80   23.10
   2   4  -2  441.86   23.20
   2   4  -2  430.33   24.91
   2   4  -2  466.68   25.70
   2   4  -1  316.98   16.16
   2   4  -1  307.78   19.29
   2   4  -1  282.46   19.41
   2   4  -1  300.66   19.38
   2   4  -1  317.16   21.35
   2   4   0  355.73   21.37
   2   4   0  351.22   21.10
   2   4   0  374.56   18.56
   2   4   0  366.86   22.33
   2   4   0  350.11   20.79
   2   4   1  555.96   27.26
   2   4   1  555.11   27.41
   2   4   1  544.35   27.71
   2   4   2  129.71   14.38
   2   4   2  146.43   15.13
   2   4   2  143.74   15.16
   2   3  -3  387.53   22.05
   2   3  -3  401.71   19.11
   2   3  -3  409.17   23.56
   2   3  -2  393.39   21.98
   2   3  -2  351.62   13.08
   2   3  -2  420.51   19.41
   2   3  -2  395.02   18.91
   2   3  -2  374.63   21.12
   2   3  -1  225.68   12.12
   2   3  -1  251.13   17.09
   2   3  -1  230.28   16.29
   2   3  -1  243.33   11.22
   2   3  -1  233.88   14.40
   2   3  -1  226.72   14.50
   2   3   0  166.62   12.97
   2   3   0  156.82   12.29
   2   3   0  150.23    9.17
   2   3   0  173.43   14.05
   2   3   1  240.41   17.00
   2   3   1  252.26   16.02
   2   3   1  230.01   15.84
   2   2  -3  339.53   18.66
   2   2  -3  365.53   20.87
   2   2  -2  378.65   19.63
   2   2  -2  358.82   14.28
   2   2  -2  333.70   16.17
   2   2  -2  357.21   18.31
   2   2  -2  362.13   14.74
   2   2  -1  160.54    9.83
   2   2  -1  158.78   11.94
   2   2  -1  151.09    9.65
   2   2   0    1.86    2.92
   2   2   0    2.54    2.21
   2   2   0   -0.07    3.65
   2   2   0    0.91    3.19
   2   2   1   34.92    5.71
   2   1  -3  491.97   21.29
   2   1  -3  557.35   23.43
   2   1  -2  779.86   25.67
   2   1  -2  752.03   24.84
   2   1  -2  810.01   22.78
   2   1  -2  728.24   14.50
   2   1  -1  548.75   13.50
   2   1  -1  560.61   13.42
   2   1  -1  613.47   16.26
   2   1  -1  576.30   18.55
   2   1   0  855.61   28.62
   2   0  -4  657.11   24.66
   2   0  -3  890.87   27.41
   2   0  -3 1028.63   28.26
   2   0  -2 1221.97   23.48
   2   0  -2 1270.35   23.83
   2   0  -2 1321.47   32.08
   2   0  -1  194.41   10.03
   2   0  -1  181.54   13.28
   2  -1  -4  927.82   27.08
   2  -1  -4  886.64   19.89
   2  -1  -3  426.27   17.22
   2  -1  -3  416.39   16.57
   2  -1  -3  401.89   19.78
   2  -1  -3  404.30   11.36
   2  -1  -2 1926.94   34.20
   2  -1  -2 1841.35   39.02
   2  -1  -1  906.11   24.08
   2  -1  -1  920.97   27.00
   2  -2  -5  379.64   21.14
   2  -2  -5  372.14   17.37
   2  -2  -4   33.17    7.14
   2  -2  -4   39.47    5.78
   2  -2  -4   26.48    7.09
   2  -2  -3  176.75    9.48
   2  -2  -3  187.04   13.70
   2  -2  -3  203.99   11.37
   2  -2  -3  179.02   13.88
   2  -2  -3  186.78   10.19
   2  -2  -2 1069.03   23.15
   2  -2  -2 1088.59   33.12
   2  -2  -2 1094.32   31.13
   2  -2  -2 1035.72   24.81
   2  -2  -1   60.01    6.64
   2  -2  -1   74.55    9.36
   2  -2  -1   90.47   10.33
   2  -2  -1   81.62   10.66
   2  -3  -5  301.52   21.50
   2  -3  -5  331.46   18.99
   2  -3  -4  383.61   20.70
   2  -3  -4  443.80   20.42
   2  -3  -4  441.91   24.11
   2  -3  -4  434.04   20.01
   2  -3  -3  497.83   24.57
   2  -3  -3  523.32   21.78
   2  -3  -3  481.94   19.68
   2  -3  -3  487.12   25.05
   2  -3  -3  484.99   22.71
   2  -3  -2 1533.57   41.76
   2  -3  -2 1518.96   36.98
   2  -3  -2 1599.19   35.53
   2  -3  -2 1529.80   42.27
   2  -3  -1  507.74   24.91
   2  -3  -1  465.87   21.05
   2  -3  -1  505.87   24.62
   2  -4  -6   48.50   12.15
   2  -4  -6   28.67    8.52
   2  -4  -5  198.90   19.26
   2  -4  -5  195.44   17.09
   2  -4  -4  177.26   15.54
   2  -4  -4  193.08   18.50
   2  -4  -4  185.99   15.34
   2  -4  -4  184.75   17.82
   2  -4  -3  397.81   24.66
   2  -4  -3  413.15   22.85
   2  -4  -3  389.82   21.19
   2  -4  -3  397.58   24.82
   2  -4  -2 1192.53   38.75
   2  -4  -2 1156.73   35.78
   2  -4  -2 1139.21   40.01
   2  -4  -2 1122.56   41.06
   2  -4  -1  316.93   21.77
   2  -4  -1  299.05   22.00
   2  -4  -1  327.19   21.07
   2  -5  -6    5.83    8.35
   2  -5  -5   85.23   15.16
   2  -5  -5   70.03   13.81
   2  -5  -5   81.94   13.23
   2  -5  -5   64.14   12.29
   2  -5  -4   33.27    9.20
   2  -5  -4   35.13    9.43
   2  -5  -4   36.15   10.99
   2  -5  -4   45.76   11.81
   2  -5  -3   86.77   13.07
   2  -5  -3   98.21   13.73
   2  -5  -3   99.97   15.29
   2  -5  -3   97.38   13.50
   2  -5  -2  152.89   17.68
   2  -5  -2  171.96   16.74
   2  -5  -2  180.23   18.13
   2  -5  -1   96.48   14.54
   2  -5  -1  112.59   14.91
   2  -6  -6   16.95   11.01
   2  -6  -6   34.67   12.60
   2  -6  -5   95.54   15.62
   2  -6  -5   78.92   16.04
   2  -6  -5   80.11   16.79
   2  -6  -4  194.94   20.84
   2  -6  -4  201.98   20.52
   2  -6  -4  207.65   22.83
   2  -6  -4  221.28   23.31
   2  -6  -3  197.14   21.92
   2  -6  -3  196.85   20.72
   2  -6  -3  236.10   22.03
   2  -6  -3  217.31   22.50
   2  -6  -2  413.73   31.17
   2  -6  -2  448.91   29.90
   2  -7  -6   20.04   12.05
   2  -7  -5   65.30   16.04
   2  -7  -4   47.69   12.55
   2  -7  -4   34.85   16.32
   2  -7  -3  125.21   18.20
   2  -7  -3  103.79   19.18
   2  -8  -3   14.18   13.52
   1   8   0  168.63   21.78
   1   8   0  139.97   20.34
   1   8   1   75.45   15.97
   1   8   1   76.99   17.37
   1   8   2   18.68   10.44
   1   8   2   40.61   14.40
   1   8   3    9.61   13.73
   1   8   3   22.56   11.76
   1   8   4   11.27   10.43
   1   7   0  172.40   19.13
   1   7   0  180.45   20.32
   1   7   0  174.65   21.09
   1   7   0  172.48   20.04
   1   7   1  149.63   19.89
   1   7   1  146.81   19.14
   1   7   1  104.16   16.09
   1   7   1  150.50   19.99
   1   7   2   65.37   14.45
   1   7   2   28.03    9.78
   1   7   2   47.60   12.64
   1   7   2   42.21   12.47
   1   7   3   92.25   15.57
   1   7   3   76.78   15.28
   1   7   3   86.42   17.12
   1   7   3  108.99   17.57
   1   7   4  131.67   20.22
   1   7   4   97.26   18.83
   1   6  -1   68.12   11.34
   1   6  -1   63.61   11.99
   1   6  -1   62.71   12.62
   1   6   0  799.15   36.93
   1   6   0  722.13   36.21
   1   6   0  757.26   36.18
   1   6   0  722.21   36.69
   1   6   1  103.31   14.74
   1   6   1   61.98   12.57
   1   6   1   88.91   14.08
   1   6   1   80.58   13.68
   1   6   2  136.43   18.86
   1   6   2  110.30   16.16
   1   6   2  135.93   17.43
   1   6   2  145.20   16.42
   1   6   3  143.92   19.69
   1   6   3  158.75   19.69
   1   6   3  167.58   18.53
   1   6   3  159.30   19.29
   1   6   4  188.98   21.62
   1   6   4  192.49   22.53
   1   6   4  173.01   19.73
   1   5  -1  477.04   23.56
   1   5  -1  451.29   25.12
   1   5  -1  475.76   27.05
   1   5  -1  489.10   26.95
   1   5   0  875.55   32.86
   1   5   0  840.25   35.27
   1   5   0  840.35   35.23
   1   5   0  861.63   35.65
   1   5   1  232.29   19.04
   1   5   1  215.62   17.65
   1   5   1  196.57   17.70
   1   5   1  211.58   18.68
   1   5   2   76.58   11.67
   1   5   2   72.14   11.99
   1   5   2   72.74   12.29
   1   5   2   73.90   11.86
   1   5   3   63.06   12.27
   1   5   3   44.51    9.10
   1   5   3   52.98   10.58
   1   5   3   39.20    9.66
   1   5   4   71.78   11.46
   1   4  -1   46.14    8.62
   1   4  -1   43.49    7.94
   1   4  -1   46.44    6.86
   1   4  -1   43.37    7.80
   1   4   0 1933.68   41.06
   1   4   0 1901.89   42.65
   1   4   0 1811.68   45.68
   1   4   0 1884.75   46.46
   1   4   0 1853.47   46.26
   1   4   1  461.96   23.73
   1   4   1  490.26   19.66
   1   4   1  488.18   23.79
   1   4   1  479.47   23.41
   1   4   1  471.50   24.01
   1   4   2  211.43   16.92
   1   4   2  215.08   17.15
   1   4   2  231.37   17.25
   1   4   2  216.63   15.92
   1   4   3  521.94   26.85
   1   4   3  503.61   27.53
   1   4   3  529.72   25.85
   1   3  -1 1806.96   38.44
   1   3  -1 1774.62   32.58
   1   3  -1 1697.86   37.51
   1   3  -1 1841.62   41.54
   1   3  -1 1736.73   38.92
   1   3   0 3013.02   50.69
   1   3   0 2956.60   45.25
   1   3   0 3088.34   45.15
   1   3   0 2944.57   50.11
   1   3   0 2969.07   51.02
   1   3   1  541.51   22.10
   1   3   1  511.00   21.62
   1   3   1  548.67   20.74
   1   3   1  528.81   21.70
   1   3   2  548.97   22.90
   1   3   2  523.96   23.20
   1   3   2  518.70   21.80
   1   3   2  498.31   21.40
   1   2  -1  354.14   15.11
   1   2  -1  363.39   11.46
   1   2  -1  371.41   14.30
   1   2  -1  375.49   16.34
   1   2  -1  370.21   14.71
   1   2   0 5278.73   55.71
   1   2   0 5280.82   45.76
   1   2   0 5363.41   57.95
   1   2   0 5364.38   54.48
   1   2   1 2139.89   36.88
   1   2   1 2107.08   32.54
   1   2   1 2173.06   36.48
   1   2   1 2108.06   36.48
   1   1  -2  155.91    9.98
   1   1  -1  331.91   12.80
   1   1  -1  332.31    9.71
   1   1  -1  323.07   11.14
   1   1  -1  335.61   12.22
   1   1   0  538.14   13.07
   1   1   0  540.65   12.78
   1   1   0  541.38   14.73
   1   0  -2 1768.46   27.55
   1   0  -2 1879.36   27.69
   1   0   0 1602.16   54.63
   1  -1  -2   95.52    6.82
   1  -1  -2   94.64    7.17
   1  -1  -2   94.62    5.48
   1  -1  -2   97.76    5.73
   1  -1  -1  234.58   10.05
   1  -1  -1  215.20    7.87
   1  -1  -1  210.50   10.58
   1  -1   0  241.22   11.51
   1  -2  -3   71.99    7.17
   1  -2  -3   60.69    6.33
   1  -2  -3   65.10    7.74
   1  -2  -2   42.44    6.03
   1  -2  -2   45.33    5.40
   1  -2  -2   41.18    5.05
   1  -2  -2   46.71    5.13
   1  -2  -1  192.40   11.90
   1  -2  -1  194.78    7.80
   1  -2  -1  209.84   10.98
   1  -2  -1  212.06   11.39
   1  -2  -1  255.23   12.40
   1  -2  -1  195.54   11.86
   1  -2   0  155.19   11.27
   1  -3  -4  360.58   19.68
   1  -3  -4  335.98   20.41
   1  -3  -4  345.22   18.85
   1  -3  -3  166.95   13.83
   1  -3  -3  162.67   12.19
   1  -3  -3  160.61   12.30
   1  -3  -2  313.48   17.45
   1  -3  -2  324.29   16.11
   1  -3  -2  329.30   16.94
   1  -3  -2  316.67   12.24
   1  -3  -2  302.22   12.92
   1  -3  -2  310.32   17.15
   1  -3  -1  305.11   17.43
   1  -3  -1  342.63   13.65
   1  -3  -1  352.05   18.06
   1  -3  -1  348.69   17.60
   1  -3  -1  315.47   17.23
   1  -3   0 1061.47   31.56
   1  -3   0 1088.99   33.52
   1  -4  -5  401.29   24.52
   1  -4  -5  374.00   25.39
   1  -4  -4  302.52   21.50
   1  -4  -4  268.38   19.04
   1  -4  -4  278.24   19.08
   1  -4  -3  175.52   15.69
   1  -4  -3  177.48   14.71
   1  -4  -3  186.59   15.42
   1  -4  -3  190.10   15.28
   1  -4  -2  220.41   16.90
   1  -4  -2  235.46   16.50
   1  -4  -2  225.68   17.05
   1  -4  -2  211.43   12.24
   1  -4  -2  231.80   16.16
   1  -4  -1  191.69   15.87
   1  -4  -1  198.40   12.88
   1  -4  -1  207.85   16.06
   1  -4  -1  201.60   15.51
   1  -4  -1  184.98   14.68
   1  -4   0  245.19   18.40
   1  -4   0  228.43   17.37
   1  -5  -5  182.56   19.29
   1  -5  -5  165.36   17.87
   1  -5  -5  170.42   17.57
   1  -5  -4   55.81   11.72
   1  -5  -4   44.53   10.96
   1  -5  -4   35.88    9.26
   1  -5  -4   55.71   10.93
   1  -5  -3   16.22    7.14
   1  -5  -3    5.00    6.94
   1  -5  -3   13.17    7.65
   1  -5  -3    0.83    8.60
   1  -5  -2  104.11   13.53
   1  -5  -2   91.80   12.98
   1  -5  -2  104.89   13.17
   1  -5  -2  106.53   13.37
   1  -5  -1   24.62    7.09
   1  -5  -1   27.35    8.48
   1  -5  -1   37.46    9.20
   1  -6  -5  270.82   25.97
   1  -6  -5  278.98   25.93
   1  -6  -5  236.45   23.26
   1  -6  -4  149.77   19.34
   1  -6  -4  111.28   16.37
   1  -6  -4  157.92   19.03
   1  -6  -3  109.27   15.51
   1  -6  -3  114.32   16.06
   1  -6  -3  130.19   17.25
   1  -6  -2  265.09   23.36
   1  -6  -2  250.10   21.80
   1  -6  -2  231.19   21.72
   1  -6  -1   97.55   14.84
   1  -6  -1  102.89   15.33
   1  -6  -1  104.44   15.51
   1  -7  -6   81.04   17.72
   1  -7  -5   73.52   15.26
   1  -7  -5   72.06   16.95
   1  -7  -5   73.80   16.34
   1  -7  -4   76.43   16.45
   1  -7  -4   80.30   16.54
   1  -7  -4   79.60   16.55
   1  -7  -3   37.16   12.47
   1  -7  -3   40.71   13.20
   1  -7  -3   59.71   14.30
   1  -7  -2  122.70   18.81
   1  -7  -2  111.39   17.30
   1  -7  -2  123.65   18.46
   1  -8  -5   52.15   15.39
   1  -8  -5   41.23   14.33
   1  -8  -5   42.14   15.34
   1  -8  -4    5.51   10.98
   1  -8  -4   26.78   13.85
   1  -8  -4   11.04   12.50
   1  -8  -3   23.69   12.00
   1  -8  -3   -0.42   11.69
   1  -8  -3   15.97   10.00
   1  -8  -2   27.98   13.58
   0   8   1   77.19   17.78
   0   8   1   74.97   16.11
   0   8   1   86.04   16.82
   0   8   2   -1.79   10.49
   0   8   2   -8.19   11.22
   0   8   2   23.05   12.19
   0   8   3    3.02   10.53
   0   8   3  -14.74   12.15
   0   8   3  -14.79   14.53
   0   8   4    1.98   10.38
   0   8   4   17.93   12.17
   0   8   5   11.11   10.78
   0   7   1   56.78   12.78
   0   7   1   81.46   15.26
   0   7   1   83.80   14.71
   0   7   2   48.33   13.76
   0   7   2   42.02   13.17
   0   7   2   39.97   12.07
   0   7   3   69.75   15.86
   0   7   3   51.49   15.46
   0   7   3   45.58   13.73
   0   7   4   57.75   14.63
   0   7   4   58.40   15.91
   0   7   4   93.61   18.50
   0   7   5  143.97   21.80
   0   7   5  160.64   24.22
   0   7   5  159.66   22.70
   0   6   0  183.75   18.18
   0   6   0  187.74   18.36
   0   6   0  204.56   20.19
   0   6   1  210.88   20.21
   0   6   1  192.07   19.66
   0   6   1  204.67   17.75
   0   6   1  218.22   20.80
   0   6   2   11.74   19.54
   0   6   2  -10.94   10.69
   0   6   2    0.05    8.62
   0   6   3   68.76   13.73
   0   6   3   93.03   15.71
   0   6   3   74.19   14.83
   0   6   4  153.40   20.26
   0   6   4  151.29   19.99
   0   6   4  186.87   20.34
   0   6   5  189.42   21.40
   0   5   0  757.05   32.56
   0   5   0  769.88   32.89
   0   5   0  773.15   34.20
   0   5   1  490.03   27.00
   0   5   1  480.28   26.60
   0   5   1  482.62   24.19
   0   5   1  487.95   26.96
   0   5   2   40.05    8.10
   0   5   2   29.57    8.80
   0   5   2   33.84    9.18
   0   5   2   29.32    8.80
   0   5   3   14.76    6.34
   0   5   3   18.71    8.35
   0   5   3   24.61    8.93
   0   5   3   28.81    9.73
   0   5   4    0.80    5.94
   0   5   4    7.70    6.58
   0   5   4    6.16    7.92
   0   5   4   15.39    7.72
   0   4   0  449.45   17.23
   0   4   0  473.14   22.65
   0   4   0  479.10   22.81
   0   4   0  480.64   21.55
   0   4   0  492.68   24.08
   0   4   1   52.93    7.92
   0   4   1   55.29    9.17
   0   4   1   42.84    6.19
   0   4   1   43.47    7.75
   0   4   1   52.15    8.58
   0   4   2   66.41    9.40
   0   4   2   52.82    7.50
   0   4   2   64.94    9.70
   0   4   2   82.62   11.14
   0   4   2   73.67    8.88
   0   4   3  105.62   12.30
   0   4   3  105.73   12.42
   0   4   3  119.83   13.83
   0   4   3  113.57   11.07
   0   4   4  244.61   18.99
   0   4   4  220.40   19.33
   0   4   4  237.15   18.80
   0   4   4  226.89   16.02
   0   3   0 4261.21   46.21
   0   3   0 4163.68   57.63
   0   3   0 4405.83   59.62
   0   3   0 4309.11   55.26
   0   3   0 4377.32   60.65
   0   3   1 3038.94   50.71
   0   3   1 2980.66   50.09
   0   3   1 2947.81   50.06
   0   3   1 3109.38   46.24
   0   3   2  309.28   17.07
   0   3   2  318.23   17.38
   0   3   2  291.11   14.66
   0   3   2  314.69   18.10
   0   3   2  341.31   15.44
   0   3   3   89.93   10.10
   0   3   3   98.31   11.24
   0   3   3   98.58   10.38
   0   3   3   92.85    8.75
   0   2   0 9952.73   71.88
   0   2   0 9976.60   72.38
   0   2   0 9901.83   68.54
   0   2   0 9919.47   74.17
   0   2   1   59.76    6.31
   0   2   1   48.98    4.43
   0   2   1   46.17    5.23
   0   2   1   47.37    5.38
   0   2   1   59.86    5.35
   0   2   2  377.93   15.44
   0   2   2  374.71   15.49
   0   2   2  351.37   14.20
   0   2   2  372.47   16.52
   0   1   1  402.96   11.19
   0   1   1  418.10   11.24
   0   1   1  409.10   12.00
   0  -1  -1  419.92   11.39
   0  -1  -1  414.15   10.93
   0  -1   0 1813.46   21.88
   0  -2  -2  383.38   14.91
   0  -2  -2  388.46   15.28
   0  -2  -2  420.04   16.64
   0  -2  -1   75.70    6.53
   0  -2  -1   79.91    6.09
   0  -2  -1   77.16    6.71
   0  -2  -1   73.26    6.29
   0  -2   0 9960.71   70.13
   0  -2   0 9999.00   73.17
   0  -2   0 9861.04   74.82
   0  -2   0 9965.51   66.70
   0  -2   0 9903.23   60.75
   0  -3  -3  117.80   11.44
   0  -3  -3  111.96   11.19
   0  -3  -3  113.32   10.78
   0  -3  -2  332.46   17.53
   0  -3  -2  346.10   17.30
   0  -3  -2  332.12   16.77
   0  -3  -2  327.76   15.97
   0  -3  -1 2930.95   44.66
   0  -3  -1 2859.99   46.61
   0  -3  -1 2963.26   49.35
   0  -3  -1 2865.83   47.52
   0  -3  -1 2902.38   29.49
   0  -3  -1 2915.26   40.10
   0  -3   0 4099.40   57.83
   0  -3   0 4254.80   54.97
   0  -3   0 4152.89   59.36
   0  -3   0 4258.29   60.52
   0  -3   0 4281.78   40.99
   0  -4  -4  272.17   20.31
   0  -4  -4  278.33   20.59
   0  -4  -4  287.01   20.11
   0  -4  -3  129.99   12.12
   0  -4  -3  139.32   13.95
   0  -4  -3  126.17   13.38
   0  -4  -3  125.46   12.80
   0  -4  -2   75.00    9.78
   0  -4  -2   81.96   10.44
   0  -4  -2   69.34    8.92
   0  -4  -2   80.98   10.58
   0  -4  -2   73.75    8.67
   0  -4  -1   56.19    8.02
   0  -4  -1   47.01    8.04
   0  -4  -1   50.38    8.42
   0  -4  -1   48.96    8.15
   0  -4  -1   46.41    6.43
   0  -4   0  439.83   15.41
   0  -4   0  469.22   22.65
   0  -4   0  458.98   21.24
   0  -4   0  438.47   22.85
   0  -4   0  454.81   23.25
   0  -5  -4   -0.12    6.54
   0  -5  -4    9.23    7.24
   0  -5  -4   13.03    7.31
   0  -5  -3   31.10    8.77
   0  -5  -3   19.71    7.46
   0  -5  -3   17.27    7.01
   0  -5  -3   17.83    7.31
   0  -5  -2   41.24    8.92
   0  -5  -2   47.12    9.18
   0  -5  -2   28.84    8.07
   0  -5  -2   46.13    9.63
   0  -5  -1  455.61   25.15
   0  -5  -1  460.82   26.02
   0  -5  -1  388.68   23.74
   0  -5  -1  494.49   24.21
   0  -5   0  723.94   33.02
   0  -5   0  761.21   33.29
   0  -5   0  756.56   32.26
   0  -5   0  802.09   31.63
   0  -6  -5  238.31   24.16
   0  -6  -5  214.01   23.71
   0  -6  -5  195.43   22.35
   0  -6  -4  181.20   19.71
   0  -6  -4  183.39   20.49
   0  -6  -4  199.81   20.94
   0  -6  -3   92.95   14.81
   0  -6  -3   77.41   13.37
   0  -6  -3   68.51   13.28
   0  -6  -2   -9.70   10.93
   0  -6  -2   -2.09    8.98
   0  -6  -2  -28.66   13.93
   0  -6  -1  195.99   19.39
   0  -6  -1  200.11   19.69
   0  -6  -1  191.16   19.34
   0  -6  -1  193.62   17.83
   0  -6   0  209.36   19.33
   0  -6   0  210.25   20.95
   0  -6   0  182.54   18.96
   0  -7  -5  160.46   22.90
   0  -7  -5  153.78   22.07
   0  -7  -5  132.88   20.85
   0  -7  -4   73.19   16.55
   0  -7  -4   75.60   16.39
   0  -7  -4   81.39   15.41
   0  -7  -3   58.79   14.25
   0  -7  -3   50.28   13.23
   0  -7  -3   77.97   15.42
   0  -7  -2   38.69   11.22
   0  -7  -2   48.93   13.17
   0  -7  -2   40.41   11.52
   0  -7  -1   67.66   14.63
   0  -7  -1   93.05   16.35
   0  -7  -1   64.42   13.90
   0  -8  -5   25.45   15.36
   0  -8  -5   31.73   12.85
   0  -8  -5    8.34   11.69
   0  -8  -4   16.89   12.02
   0  -8  -4   -0.03   11.86
   0  -8  -4   25.10   12.65
   0  -8  -3   -7.26   11.84
   0  -8  -3    9.96   11.22
   0  -8  -2   41.99   13.80
   0  -8  -2   27.18   13.66
   0  -8  -2   13.23   12.85
   0  -8  -1   75.28   16.09
  -1   8   2   40.05   13.43
  -1   8   2   49.98   14.45
  -1   8   3   33.11   12.69
  -1   8   3   28.34   13.02
  -1   8   4   -1.23   10.79
  -1   8   4   12.09   12.32
  -1   8   5  111.44   20.41
  -1   8   5   56.27   17.75
  -1   8   5   64.67   18.28
  -1   7   2  110.90   17.63
  -1   7   2  119.60   17.25
  -1   7   2   97.90   17.33
  -1   7   3   42.99   12.64
  -1   7   3   39.85   12.70
  -1   7   3   12.95   10.93
  -1   7   4   60.44   15.86
  -1   7   4   74.28   16.60
  -1   7   4   45.13   14.58
  -1   7   5   52.10   16.06
  -1   7   5   71.41   15.96
  -1   7   5   85.23   18.08
  -1   7   6   75.85   19.34
  -1   6   1  123.78   16.17
  -1   6   1  119.33   15.91
  -1   6   1  113.29   15.38
  -1   6   2  225.58   22.70
  -1   6   2  217.31   21.00
  -1   6   2  240.72   22.25
  -1   6   3  108.59   16.65
  -1   6   3  118.22   16.87
  -1   6   3  128.11   18.43
  -1   6   4  116.84   17.60
  -1   6   4  129.54   20.14
  -1   6   4  145.28   18.85
  -1   6   5  225.36   24.01
  -1   6   5  215.85   25.70
  -1   6   5  247.15   24.46
  -1   5   1   34.09    8.92
  -1   5   1   30.00    6.96
  -1   5   1   30.17    8.97
  -1   5   1   27.76    8.24
  -1   5   2   84.68   12.22
  -1   5   2   76.28   11.02
  -1   5   2   81.04   12.95
  -1   5   2   99.44   13.47
  -1   5   3   36.45   10.36
  -1   5   3   32.23    8.65
  -1   5   3   29.34    9.73
  -1   5   3   33.37    9.91
  -1   5   4   75.96   12.80
  -1   5   4   63.16   12.32
  -1   5   4   51.94   12.00
  -1   5   4   72.38   12.04
  -1   5   5  181.86   18.90
  -1   5   5  189.27   19.21
  -1   5   5  195.53   21.72
  -1   4   0  220.40   15.09
  -1   4   0  200.49   16.50
  -1   4   0  192.98   14.88
  -1   4   1  219.17   14.69
  -1   4   1  249.67   17.05
  -1   4   1  232.68   17.80
  -1   4   1  232.68   16.52
  -1   4   2  170.55   13.52
  -1   4   2  187.42   16.32
  -1   4   2  173.46   14.48
  -1   4   2  163.60   11.34
  -1   4   2  201.02   15.86
  -1   4   3  159.64   14.68
  -1   4   3  146.99   14.11
  -1   4   3  148.95   14.18
  -1   4   3  177.06   16.99
  -1   4   4  261.43   19.54
  -1   4   4  215.68   17.50
  -1   4   4  256.64   19.97
  -1   4   4  252.54   21.12
  -1   4   5  334.70   23.06
  -1   4   5  295.56   23.64
  -1   3   0  978.11   29.12
  -1   3   0 1024.28   31.96
  -1   3   0 1030.53   29.19
  -1   3   1  355.27   17.45
  -1   3   1  309.43   16.52
  -1   3   1  346.67   19.16
  -1   3   1  321.40   12.60
  -1   3   1  358.03   17.83
  -1   3   2  295.20   12.45
  -1   3   2  296.48   15.76
  -1   3   2  283.62   12.54
  -1   3   2  293.34   17.95
  -1   3   2  295.35   15.86
  -1   3   2  271.44   11.99
  -1   3   2  317.20   16.70
  -1   3   3  170.92   13.28
  -1   3   3  158.60   12.59
  -1   3   3  163.35   13.45
  -1   3   3  162.30   14.59
  -1   3   3  191.32   11.72
  -1   3   3  167.17    9.66
  -1   3   4  329.97   18.93
  -1   3   4  317.71   20.09
  -1   3   4  304.08   20.56
  -1   3   4  305.39   18.46
  -1   3   4  328.95   17.27
  -1   3   4  307.47   13.63
  -1   2   0  123.75    9.95
  -1   2   1  234.23   12.02
  -1   2   1  240.36   13.63
  -1   2   1  235.72   10.61
  -1   2   1  237.88   11.39
  -1   2   1  237.80    9.91
  -1   2   1  239.66   11.90
  -1   2   2   29.45    4.62
  -1   2   2   36.00    4.95
  -1   2   2   26.68    4.60
  -1   2   2   31.81    5.56
  -1   2   2   33.89    4.85
  -1   2   2   31.26    4.60
  -1   2   3   38.60    5.68
  -1   2   3   43.02    6.61
  -1   2   3   36.10    6.16
  -1   2   3   40.40    5.74
  -1   2   3   41.28    5.98
  -1   2   4   18.25    4.77
  -1   1   1  278.13   10.21
  -1   1   1  277.60   10.91
  -1   1   1  321.28   11.99
  -1   1   1  291.33   11.47
  -1   1   1  271.42    8.70
  -1   1   2   72.49    4.55
  -1   1   2   64.64    4.73
  -1   1   2   66.22    6.06
  -1   1   2   62.58    5.96
  -1   1   2   60.35    4.86
  -1   1   2   69.55    6.41
  -1   1   2   76.01    6.53
  -1   1   3  641.87   21.72
  -1   0   0 2658.02   37.64
  -1   0   1 2425.92   34.73
  -1   0   1 2504.14   32.43
  -1   0   1 2560.47   39.38
  -1   0   2 1671.53   31.83
  -1   0   2 1837.52   31.31
  -1   0   2 1793.70   27.83
  -1  -1   0  601.05   15.92
  -1  -1   0  600.02   13.35
  -1  -1   0  563.23   12.37
  -1  -1   0  583.29   13.96
  -1  -1   0  586.31   15.59
  -1  -1   0  616.00   13.86
  -1  -1   1  397.18   13.55
  -1  -1   1  419.29   12.93
  -1  -1   1  420.64   12.80
  -1  -1   1  382.27   10.29
  -1  -1   1  389.32   12.05
  -1  -2  -1 1944.96   34.29
  -1  -2  -1 1919.24   36.43
  -1  -2  -1 1897.65   35.38
  -1  -2  -1 1935.88   34.50
  -1  -2   0 5443.91   53.26
  -1  -2   0 5414.78   53.30
  -1  -2   0 5302.99   43.60
  -1  -2   0 5242.27   57.61
  -1  -2   0 5391.74   54.44
  -1  -2   1  308.48   13.52
  -1  -2   1  287.99   13.88
  -1  -2   1  319.36   13.43
  -1  -2   1  305.94   13.43
  -1  -2   1  290.52   10.64
  -1  -3  -2  408.30   20.34
  -1  -3  -2  497.56   22.80
  -1  -3  -2  479.61   20.07
  -1  -3  -2  492.67   21.65
  -1  -3  -1  479.96   18.40
  -1  -3  -1  505.52   18.45
  -1  -3  -1  470.38   20.06
  -1  -3  -1  510.55   21.00
  -1  -3  -1  465.85   20.54
  -1  -3   0 3021.63   45.08
  -1  -3   0 3035.85   42.24
  -1  -3   0 2975.20   49.61
  -1  -3   0 3007.60   48.70
  -1  -3   0 2871.06   49.26
  -1  -3   1 1777.16   36.31
  -1  -3   1 1795.06   26.27
  -1  -3   1 1740.73   38.21
  -1  -3   1 1792.49   39.38
  -1  -3   1 1742.19   38.77
  -1  -4  -3  514.65   26.38
  -1  -4  -3  528.33   28.29
  -1  -4  -3  521.14   26.67
  -1  -4  -2  219.52   17.42
  -1  -4  -2  216.88   16.04
  -1  -4  -2  211.48   16.87
  -1  -4  -2  206.90   16.35
  -1  -4  -1  377.09   17.88
  -1  -4  -1  403.75   19.11
  -1  -4  -1  369.78   21.07
  -1  -4  -1  396.93   21.14
  -1  -4  -1  410.51   21.63
  -1  -4   0 1894.80   38.87
  -1  -4   0 1992.64   42.11
  -1  -4   0 1889.92   46.46
  -1  -4   0 1903.48   44.90
  -1  -4   0 1876.58   45.64
  -1  -4   1   19.46    5.28
  -1  -4   1   27.73    7.14
  -1  -4   1   19.73    5.68
  -1  -4   1   21.34    6.38
  -1  -5  -3   53.08   10.53
  -1  -5  -3   68.97   10.66
  -1  -5  -3   77.09   12.49
  -1  -5  -3   49.38   11.17
  -1  -5  -2   43.30    9.18
  -1  -5  -2   60.89    9.85
  -1  -5  -2   66.61   11.64
  -1  -5  -2   58.00   11.16
  -1  -5  -1  211.46   16.67
  -1  -5  -1  216.69   18.94
  -1  -5  -1  215.22   17.73
  -1  -5  -1  194.45   17.20
  -1  -5   0  864.19   32.48
  -1  -5   0  843.09   34.95
  -1  -5   0  788.03   33.16
  -1  -5   0  866.18   34.82
  -1  -5   1  520.97   23.91
  -1  -5   1  465.12   26.62
  -1  -5   1  485.84   26.55
  -1  -5   1  459.34   25.30
  -1  -6  -4  203.26   22.22
  -1  -6  -4  192.77   22.66
  -1  -6  -4  188.10   21.00
  -1  -6  -3  158.30   18.51
  -1  -6  -3  164.09   19.87
  -1  -6  -3  136.67   18.48
  -1  -6  -3  141.85   18.40
  -1  -6  -2  105.87   15.59
  -1  -6  -2  134.44   15.92
  -1  -6  -2  128.96   17.42
  -1  -6  -2  128.55   17.77
  -1  -6  -1   56.07   11.19
  -1  -6  -1   60.54   11.16
  -1  -6  -1   52.22   11.95
  -1  -6  -1   44.43    9.48
  -1  -6   0  781.55   35.00
  -1  -6   0  726.59   36.64
  -1  -6   0  699.17   34.83
  -1  -6   0  775.03   36.06
  -1  -6   1   79.45   13.37
  -1  -6   1   76.56   12.49
  -1  -6   1   75.56   12.95
  -1  -7  -4  120.87   19.29
  -1  -7  -4   91.57   17.85
  -1  -7  -4  134.92   21.35
  -1  -7  -3  112.19   18.11
  -1  -7  -3  112.14   17.33
  -1  -7  -3  113.74   18.86
  -1  -7  -3  100.37   17.78
  -1  -7  -2   30.10   11.52
  -1  -7  -2   58.33   14.25
  -1  -7  -2   35.66   12.17
  -1  -7  -2   48.53   13.62
  -1  -7  -1  106.30   16.54
  -1  -7  -1  142.24   18.71
  -1  -7  -1  133.49   17.80
  -1  -7  -1  137.78   19.21
  -1  -7   0  152.69   19.76
  -1  -7   0  169.08   20.07
  -1  -7   0  163.35   19.69
  -1  -8  -4   22.66   11.87
  -1  -8  -4    9.68   11.37
  -1  -8  -4   36.84   15.91
  -1  -8  -3    7.41   10.21
  -1  -8  -3   16.52   12.50
  -1  -8  -2    7.26   10.14
  -1  -8  -2   -5.74    9.78
  -1  -8  -1   76.83   17.14
  -1  -8  -1   26.15   13.85
  -1  -8   0  188.47   24.41
  -2   8   3   30.98   14.48
  -2   7   3  119.35   18.23
  -2   7   3  111.31   18.96
  -2   7   3  119.96   21.29
  -2   7   4   52.19   21.24
  -2   7   5   59.34   16.85
  -2   7   6    4.52   10.58
  -2   6   2  418.30   27.58
  -2   6   2  475.88   33.52
  -2   6   2  460.06   30.65
  -2   6   3  219.78   22.10
  -2   6   3  200.90   21.30
  -2   6   3  191.91   24.22
  -2   6   3  216.91   21.02
  -2   6   4  166.88   20.69
  -2   6   4  183.84   21.02
  -2   6   4  201.74   25.72
  -2   6   4  197.78   21.52
  -2   6   5   79.30   14.74
  -2   6   5   84.18   16.09
  -2   6   5   69.17   14.63
  -2   6   5   87.40   18.21
  -2   6   6   22.40   12.65
  -2   5   1   82.42   12.69
  -2   5   1   83.02   14.05
  -2   5   1   74.60   12.02
  -2   5   2  191.62   18.48
  -2   5   2  150.78   15.82
  -2   5   2  174.47   19.58
  -2   5   2  173.51   16.49
  -2   5   3   89.38   12.90
  -2   5   3  103.72   14.94
  -2   5   3  104.39   17.48
  -2   5   3  106.84   14.86
  -2   5   4   61.82   11.34
  -2   5   4   54.53   13.12
  -2   5   4   52.98   12.00
  -2   5   4   40.38   13.08
  -2   5   5   90.77   14.43
  -2   5   5   85.63   16.07
  -2   5   5   78.49   15.56
  -2   5   5   87.10   14.31
  -2   5   6   37.24   12.75
  -2   4   1  328.17   21.25
  -2   4   1  347.05   23.89
  -2   4   1  317.21   19.76
  -2   4   1  340.41   17.95
  -2   4   2 1078.26   37.62
  -2   4   2 1195.07   43.68
  -2   4   2 1251.16   38.32
  -2   4   2 1164.83   36.66
  -2   4   3  388.51   24.16
  -2   4   3  431.56   27.51
  -2   4   3  414.84   22.73
  -2   4   3  426.08   22.61
  -2   4   4  163.11   15.03
  -2   4   4  156.44   17.37
  -2   4   4  158.22   18.43
  -2   4   4  185.18   16.09
  -2   4   5  193.72   17.57
  -2   4   5  193.10   19.53
  -2   4   5  148.37   18.26
  -2   4   6   28.28   10.08
  -2   4   6   55.72   11.56
  -2   3   1  504.92   24.03
  -2   3   1  484.84   24.46
  -2   3   1  514.00   21.12
  -2   3   1  476.18   20.42
  -2   3   2 1445.87   40.05
  -2   3   2 1524.09   43.40
  -2   3   2 1382.31   36.33
  -2   3   2 1513.53   36.21
  -2   3   2 1525.78   35.61
  -2   3   3  460.47   23.71
  -2   3   3  490.06   22.71
  -2   3   3  514.70   26.53
  -2   3   3  484.73   22.32
  -2   3   3  517.84   21.42
  -2   3   3  508.49   21.19
  -2   3   4  502.41   22.45
  -2   3   4  484.98   24.29
  -2   3   4  431.10   23.16
  -2   3   4  426.30   24.74
  -2   3   4  448.32   21.40
  -2   3   4  441.08   26.63
  -2   3   5  351.10   20.32
  -2   3   5  339.03   23.76
  -2   3   5  303.76   22.51
  -2   3   5  364.38   23.34
  -2   2   1  105.05   10.88
  -2   2   1   80.84    9.63
  -2   2   1  101.71    8.14
  -2   2   2  952.95   29.44
  -2   2   2 1058.83   23.54
  -2   2   2 1024.45   30.82
  -2   2   2 1044.26   31.50
  -2   2   2 1011.85   28.97
  -2   2   2  986.61   23.03
  -2   2   3  209.17    9.73
  -2   2   3  194.10   10.98
  -2   2   3  194.25   14.40
  -2   2   3  190.53   13.71
  -2   2   3  200.57   14.58
  -2   2   3  234.08   16.02
  -2   2   3  207.51   11.07
  -2   2   4   53.73    6.41
  -2   2   4   59.54    6.58
  -2   2   4   47.92    8.78
  -2   2   4   50.99    8.22
  -2   2   4   43.24    8.75
  -2   2   4   40.96    8.22
  -2   2   5  447.82   18.15
  -2   2   5  408.90   18.45
  -2   2   5  379.93   23.73
  -2   2   5  449.96   25.84
  -2   1   1  948.52   26.25
  -2   1   1  948.37   28.23
  -2   1   1  995.87   24.47
  -2   1   1  926.85   25.97
  -2   1   2 1926.91   41.08
  -2   1   2 1890.96   31.75
  -2   1   2 1612.95   33.37
  -2   1   2 1909.49   34.09
  -2   1   2 1708.21   35.73
  -2   1   3  400.65   11.31
  -2   1   3  476.71   17.40
  -2   1   3  404.52   19.64
  -2   1   3  393.04   18.45
  -2   1   3  426.83   18.43
  -2   1   3  467.06   21.93
  -2   1   4  983.65   26.45
  -2   1   4  843.45   19.94
  -2   1   4  885.43   30.60
  -2   1   4  927.93   32.59
  -2   1   4 1059.78   35.37
  -2   0   1  120.18   13.43
  -2   0   1  125.14   14.48
  -2   0   1  207.70   11.84
  -2   0   1  209.87    9.22
  -2   0   1  265.31   12.70
  -2   0   1  221.31   10.49
  -2   0   2 1137.14   32.81
  -2   0   2 1416.64   28.46
  -2   0   2 1113.30   24.51
  -2   0   2 1636.59   31.38
  -2   0   2 1291.69   23.21
  -2   0   3 1003.40   29.87
  -2   0   3  860.97   27.98
  -2   0   3  885.66   19.78
  -2   0   3  926.94   26.47
  -2   0   4  606.32   26.10
  -2   0   4  722.64   30.10
  -2  -1   0  756.60   24.79
  -2  -1   0  759.54   22.93
  -2  -1   0  693.97   20.89
  -2  -1   0  635.47   20.74
  -2  -1   1  669.61   22.30
  -2  -1   1  630.28   19.26
  -2  -1   1  600.04   14.50
  -2  -1   1  594.94   13.50
  -2  -1   1  668.85   22.73
  -2  -1   1  579.59   19.16
  -2  -1   1  612.46   13.55
  -2  -1   2  909.20   27.31
  -2  -1   2  811.67   19.92
  -2  -1   2  783.55   14.63
  -2  -1   2  858.36   22.43
  -2  -1   2  783.60   24.22
  -2  -1   2  900.42   27.84
  -2  -1   3  622.77   23.25
  -2  -1   3  569.06   23.53
  -2  -1   3  579.93   23.68
  -2  -1   3  561.90   19.24
  -2  -2  -1   57.52    7.79
  -2  -2  -1   51.11    7.69
  -2  -2   0    2.52    3.40
  -2  -2   0    6.39    4.43
  -2  -2   0    6.82    3.10
  -2  -2   0    7.52    3.22
  -2  -2   0    5.05    2.66
  -2  -2   0    4.72    2.89
  -2  -2   1  180.33   12.98
  -2  -2   1  186.06   10.53
  -2  -2   1  187.44   10.23
  -2  -2   1  183.01   12.57
  -2  -2   1  173.81   11.66
  -2  -2   1  166.68   10.53
  -2  -2   2  398.92   19.74
  -2  -2   2  407.07   18.26
  -2  -2   2  407.45   15.92
  -2  -2   2  394.72   14.63
  -2  -2   2  384.16   17.57
  -2  -2   2  424.61   18.75
  -2  -2   3  365.70   19.63
  -2  -2   3  351.67   14.68
  -2  -2   3  372.07   18.55
  -2  -2   3  323.79   17.92
  -2  -3  -1  228.23   16.79
  -2  -3  -1  224.28   15.67
  -2  -3  -1  231.74   12.59
  -2  -3  -1  240.36   11.34
  -2  -3  -1  215.17   16.55
  -2  -3  -1  233.32   15.41
  -2  -3   0  176.98   13.93
  -2  -3   0  174.92    9.56
  -2  -3   0  177.43   12.98
  -2  -3   0  179.22   12.98
  -2  -3   0  168.81   14.20
  -2  -3   0  178.69   10.03
  -2  -3   1  250.27   16.49
  -2  -3   1  246.80   15.18
  -2  -3   1  227.17   13.76
  -2  -3   1  239.44   12.64
  -2  -3   1  252.13   13.76
  -2  -3   1  256.54   16.64
  -2  -3   2  416.02   21.65
  -2  -3   2  393.08   18.71
  -2  -3   2  425.93   19.73
  -2  -3   2  410.41   18.48
  -2  -3   2  421.62   20.99
  -2  -3   3  411.77   22.17
  -2  -3   3  441.39   19.66
  -2  -3   3  432.01   22.45
  -2  -3   3  398.31   19.78
  -2  -4  -2  154.71   13.65
  -2  -4  -2  169.31   17.23
  -2  -4  -2  149.62   16.39
  -2  -4  -2  162.09   15.74
  -2  -4  -1  528.26   26.43
  -2  -4  -1  501.65   21.04
  -2  -4  -1  512.46   26.00
  -2  -4  -1  509.04   27.48
  -2  -4  -1  505.03   25.40
  -2  -4   0  430.19   23.08
  -2  -4   0  412.40   17.58
  -2  -4   0  447.32   23.56
  -2  -4   0  421.40   23.66
  -2  -4   0  413.55   22.00
  -2  -4   1  316.98   19.74
  -2  -4   1  310.85   20.64
  -2  -4   1  309.41   19.44
  -2  -4   1  308.68   18.23
  -2  -4   2  508.54   25.65
  -2  -4   2  480.84   25.29
  -2  -4   2  517.16   25.12
  -2  -4   2  466.48   23.03
  -2  -5  -3  116.24   15.23
  -2  -5  -3  163.36   19.58
  -2  -5  -2   25.52    8.15
  -2  -5  -2   17.98    7.12
  -2  -5  -2   31.31    9.48
  -2  -5  -2   23.54    9.18
  -2  -5  -1   45.18   10.05
  -2  -5  -1   41.09    9.88
  -2  -5  -1   30.30   10.16
  -2  -5  -1   36.88    9.43
  -2  -5   0   46.52   10.24
  -2  -5   0   46.94   11.42
  -2  -5   0   40.65    9.46
  -2  -5   0   42.70    9.93
  -2  -5   1   42.70    9.50
  -2  -5   1   44.90    9.78
  -2  -5   1   49.10   10.86
  -2  -5   1   41.53    9.43
  -2  -5   2   53.03   10.16
  -2  -5   2   64.02   11.17
  -2  -5   2   54.14   10.84
  -2  -5   2   65.19   10.64
  -2  -6  -3  225.66   23.76
  -2  -6  -3  199.34   21.70
  -2  -6  -2   96.37   15.49
  -2  -6  -2  106.08   16.92
  -2  -6  -2   97.03   16.52
  -2  -6  -1  302.47   26.13
  -2  -6  -1  271.09   24.42
  -2  -6  -1  270.96   22.96
  -2  -6   0  365.95   27.00
  -2  -6   0  314.61   23.93
  -2  -6   0  305.46   25.27
  -2  -6   1  119.08   16.39
  -2  -6   1  130.19   16.69
  -2  -6   1  115.78   14.98
  -2  -6   2  142.63   17.90
  -2  -6   2  164.51   17.48
  -2  -7  -3  111.16   19.36
  -2  -7  -3  103.41   18.73
  -2  -7  -2   62.13   15.79
  -2  -7  -2   69.12   16.49
  -2  -7  -2   70.30   16.60
  -2  -7  -1   32.34   12.29
  -2  -7  -1   21.05   11.66
  -2  -7  -1   32.89   12.64
  -2  -7   0  104.67   17.12
  -2  -7   0  123.81   18.38
  -2  -7   0  116.43   18.28
  -2  -7   1   70.28   14.48
  -2  -7   1   72.03   14.91
  -2  -7   1   86.37   15.44
  -2  -8  -3   25.12   12.97
  -2  -8  -3   16.54   15.18
  -2  -8  -2   -4.48   11.69
  -2  -8  -2   -1.21   11.72
  -2  -8  -1   20.36   10.06
  -2  -8  -1   12.60   11.74
  -2  -8  -1   34.02   14.83
  -2  -8   0   68.16   15.04
  -2  -8   0   98.06   19.56
  -2  -8   0   71.18   16.65
  -2  -9  -1    9.15   14.31
  -3   7   4    7.06   11.37
  -3   7   4   17.50   14.25
  -3   7   5    7.17   12.19
  -3   7   5    2.97   12.50
  -3   7   6   40.65   18.13
  -3   6   3  109.63   18.26
  -3   6   3   91.74   18.11
  -3   6   4   64.87   16.59
  -3   6   4   70.57   18.38
  -3   6   5   21.44   12.19
  -3   6   5   15.99   12.44
  -3   6   6   57.13   16.24
  -3   6   6   26.37   14.16
  -3   6   7   52.72   16.72
  -3   5   2   67.98   14.35
  -3   5   2   73.01   14.91
  -3   5   3   45.58   12.27
  -3   5   3   51.74   13.13
  -3   5   4   40.56   12.82
  -3   5   4   41.43   13.05
  -3   5   5  100.05   17.32
  -3   5   5  100.62   18.08
  -3   5   6  132.22   20.99
  -3   5   6  110.71   19.14
  -3   5   7  102.08   18.43
  -3   4   2  326.35   22.27
  -3   4   2  289.27   22.66
  -3   4   2  318.53   24.97
  -3   4   3  109.00   15.79
  -3   4   3  106.61   16.02
  -3   4   3  102.74   14.86
  -3   4   4   86.70   15.09
  -3   4   4  101.53   15.56
  -3   4   5   19.56   10.29
  -3   4   5   32.06   10.73
  -3   4   6   55.11   13.60
  -3   4   6   60.47   13.45
  -3   3   2  406.97   23.86
  -3   3   2  452.12   26.20
  -3   3   2  459.84   26.53
  -3   3   3  464.06   26.40
  -3   3   3  477.07   27.74
  -3   3   3  467.20   26.45
  -3   3   3  470.07   25.82
  -3   3   4  197.05   19.06
  -3   3   4  196.80   18.71
  -3   3   4  213.66   19.86
  -3   3   4  219.80   19.31
  -3   3   5  280.98   23.59
  -3   3   5  280.84   23.16
  -3   3   5  303.18   24.04
  -3   3   5  326.36   25.02
  -3   3   6  147.11   18.85
  -3   3   6  128.06   16.64
  -3   3   6  165.24   19.76
  -3   2   1  245.97   17.97
  -3   2   1  249.06   17.23
  -3   2   1  241.37   17.40
  -3   2   2  360.35   21.44
  -3   2   2  372.37   21.05
  -3   2   2  347.95   21.24
  -3   2   2  343.98   21.60
  -3   2   3  180.43   12.55
  -3   2   3  179.10   15.71
  -3   2   3  201.80   15.87
  -3   2   3  160.82   15.11
  -3   2   3  169.87   16.84
  -3   2   4  165.94   16.80
  -3   2   4  189.86   16.74
  -3   2   4  188.20   18.31
  -3   2   4  200.77   18.86
  -3   2   5   31.75    8.98
  -3   2   5   39.50    8.67
  -3   2   5   32.16   10.31
  -3   2   5   44.53   12.04
  -3   2   6   58.05   12.54
  -3   2   6   90.61   16.11
  -3   1   1  415.92   21.15
  -3   1   1  420.09   19.38
  -3   1   1  361.96   20.54
  -3   1   1  345.36   20.42
  -3   1   2 1380.03   36.38
  -3   1   2 1253.73   35.80
  -3   1   2 1276.08   31.51
  -3   1   2 1247.54   37.52
  -3   1   2 1319.91   41.24
  -3   1   3  678.19   24.94
  -3   1   3  621.64   26.30
  -3   1   3  628.57   23.94
  -3   1   3  622.99   28.31
  -3   1   3  672.43   31.15
  -3   1   4   51.54    8.19
  -3   1   4   43.52    9.15
  -3   1   4   38.54    6.96
  -3   1   4   39.55    9.90
  -3   1   4   43.27   10.78
  -3   1   5   74.24   10.41
  -3   1   5   73.77   11.64
  -3   1   5   78.04   13.20
  -3   1   5   71.06   13.28
  -3   0   1  838.64   32.33
  -3   0   1  758.72   27.18
  -3   0   1  778.56   21.54
  -3   0   2 1682.24   38.65
  -3   0   2 1564.14   30.72
  -3   0   2 1648.93   35.96
  -3   0   3  874.58   34.17
  -3   0   3  984.35   30.92
  -3   0   3  930.74   25.64
  -3   0   3  886.37   39.98
  -3   0   3  940.95   24.92
  -3   0   4  600.37   28.38
  -3   0   4  624.91   31.56
  -3   0   4  631.77   35.23
  -3   0   4  686.38   21.45
  -3   0   5  358.62   23.81
  -3   0   5  323.69   25.69
  -3  -1   0  196.99   16.16
  -3  -1   0  183.34   14.41
  -3  -1   1  517.24   24.82
  -3  -1   1  480.13   17.60
  -3  -1   1  443.92   20.94
  -3  -1   1  443.20   13.13
  -3  -1   1  471.56   23.99
  -3  -1   1  468.82   20.74
  -3  -1   2 1828.88   44.81
  -3  -1   2 1680.54   33.74
  -3  -1   2 1615.96   40.73
  -3  -1   2 1850.80   38.34
  -3  -1   2 1853.26   47.64
  -3  -1   3  561.21   26.17
  -3  -1   3  501.75   20.92
  -3  -1   3  483.63   24.42
  -3  -1   3  544.63   20.82
  -3  -1   3  592.29   28.74
  -3  -1   4  141.71   14.61
  -3  -1   4  130.29   14.64
  -3  -1   4  134.26   11.44
  -3  -1   4  122.47   14.33
  -3  -1   5   78.95   12.00
  -3  -1   5   73.97   12.59
  -3  -2   0  274.99   19.81
  -3  -2   0  256.08   11.41
  -3  -2   0  260.93   16.09
  -3  -2   0  263.38   15.06
  -3  -2   0  259.15   18.10
  -3  -2   1   75.76   10.68
  -3  -2   1   77.66    6.26
  -3  -2   1   72.74    7.11
  -3  -2   1   68.97    9.25
  -3  -2   1   76.91    9.81
  -3  -2   1   70.95    9.91
  -3  -2   2  847.87   32.34
  -3  -2   2  816.74   21.85
  -3  -2   2  914.90   23.36
  -3  -2   2  813.61   29.72
  -3  -2   2  870.75   30.05
  -3  -2   2  892.71   32.73
  -3  -2   2  880.96   21.98
  -3  -2   3  405.11   23.48
  -3  -2   3  350.16   20.92
  -3  -2   3  368.72   19.84
  -3  -2   3  381.22   23.13
  -3  -2   4  146.58   15.23
  -3  -2   4  131.17   14.64
  -3  -2   4  133.96   12.67
  -3  -3  -1  348.31   21.30
  -3  -3  -1  341.97   18.80
  -3  -3  -1  366.98   24.56
  -3  -3   0  274.34   20.69
  -3  -3   0  281.72   17.27
  -3  -3   0  272.43   16.14
  -3  -3   0  286.38   20.69
  -3  -3   0  279.24   17.20
  -3  -3   1  503.87   26.67
  -3  -3   1  539.92   22.50
  -3  -3   1  474.12   21.82
  -3  -3   1  504.42   25.87
  -3  -3   1  516.18   24.09
  -3  -3   1  513.50   21.63
  -3  -3   2  859.49   34.50
  -3  -3   2  895.59   28.49
  -3  -3   2  881.82   31.71
  -3  -3   2  896.60   34.00
  -3  -3   2  895.02   26.80
  -3  -3   2  917.54   32.31
  -3  -3   3  417.33   25.01
  -3  -3   3  409.23   18.20
  -3  -3   3  394.72   23.31
  -3  -3   3  428.64   24.22
  -3  -3   4  668.96   32.94
  -3  -3   4  634.11   29.54
  -3  -3   4  675.82   32.06
  -3  -4  -1  136.45   16.49
  -3  -4  -1  120.61   14.76
  -3  -4  -1  116.57   15.54
  -3  -4  -1  111.64   13.50
  -3  -4   0  384.74   25.79
  -3  -4   0  364.48   22.15
  -3  -4   0  377.29   25.45
  -3  -4   0  359.40   21.72
  -3  -4   1  330.43   23.23
  -3  -4   1  345.95   21.24
  -3  -4   1  334.88   22.90
  -3  -4   1  367.72   21.14
  -3  -4   2  658.88   31.85
  -3  -4   2  734.80   30.43
  -3  -4   2  750.29   33.92
  -3  -4   2  708.91   27.93
  -3  -4   3  466.85   28.03
  -3  -4   3  494.52   23.68
  -3  -4   3  485.77   27.73
  -3  -5  -2   40.58   12.02
  -3  -5  -2   42.07   11.29
  -3  -5  -1   45.46   10.31
  -3  -5  -1   28.38   10.71
  -3  -5  -1   30.65    9.55
  -3  -5   0   40.66   11.39
  -3  -5   0   31.53    9.17
  -3  -5   0   47.77   12.57
  -3  -5   0   42.12   11.06
  -3  -5   1   76.39   12.19
  -3  -5   1   73.29   13.75
  -3  -5   1   93.71   13.98
  -3  -5   1   66.70   13.73
  -3  -5   2   96.30   12.69
  -3  -5   2   95.27   14.43
  -3  -5   2  103.29   13.98
  -3  -5   2   78.27   13.35
  -3  -5   3   93.99   14.36
  -3  -5   3   65.40   12.69
  -3  -5   3   77.44   11.67
  -3  -6  -2   93.48   16.24
  -3  -6  -2   94.06   18.43
  -3  -6  -2   95.47   17.60
  -3  -6  -1  288.82   26.33
  -3  -6  -1  257.82   25.95
  -3  -6  -1  238.18   22.45
  -3  -6   0   70.03   13.22
  -3  -6   0   82.19   14.73
  -3  -6   0   77.82   16.19
  -3  -6   1  218.14   21.44
  -3  -6   1  215.10   21.92
  -3  -6   1  232.65   21.07
  -3  -6   1  212.68   22.88
  -3  -6   2  248.03   22.12
  -3  -6   2  250.83   22.96
  -3  -6   2  255.25   22.10
  -3  -6   2  214.17   22.71
  -3  -6   3  252.53   23.36
  -3  -6   3  259.68   21.92
  -3  -6   3  242.80   24.13
  -3  -7  -2   56.75   15.11
  -3  -7  -2   65.55   17.17
  -3  -7  -2   40.93   15.16
  -3  -7  -1   96.73   17.87
  -3  -7  -1  114.50   19.03
  -3  -7  -1  115.31   20.39
  -3  -7   0   34.44   11.97
  -3  -7   0   17.42   11.54
  -3  -7   0   28.53   12.35
  -3  -7   1   70.22   13.96
  -3  -7   1   62.96   14.66
  -3  -7   1   89.43   17.47
  -3  -7   2  123.33   17.57
  -3  -7   2  111.01   18.35
  -3  -8  -2   23.23   13.25
  -3  -8  -2   16.92   12.25
  -3  -8  -2   12.82   14.26
  -3  -8  -1   48.02   15.87
  -3  -8  -1   27.03   15.33
  -3  -8  -1   12.87   12.02
  -3  -8   0    1.63    9.85
  -3  -8   0   27.41   13.47
  -3  -8   0    2.71   11.64
  -3  -8   1   31.73   13.37
  -3  -8   1   37.59   14.96
  -4   6   4    5.30   13.22
  -4   6   4  -30.48   17.25
  -4   6   5   34.00   16.40
  -4   6   5   53.05   18.45
  -4   6   6   45.26   20.94
  -4   6   6   44.58   22.58
  -4   5   4   43.77   17.32
  -4   5   4   34.75   12.93
  -4   5   5   49.28   16.77
  -4   5   5   49.66   16.55
  -4   5   6   94.48   20.57
  -4   5   6   89.29   18.48
  -4   5   7  121.79   23.61
  -4   5   7  115.73   20.79
  -4   4   3  173.14   20.57
  -4   4   3  201.42   22.43
  -4   4   3  216.25   21.73
  -4   4   4    8.82    9.61
  -4   4   4    5.60    9.30
  -4   4   4   12.90   12.49
  -4   4   5   10.11   11.29
  -4   4   5   15.86   10.63
  -4   4   6   47.39   15.57
  -4   4   6   31.41   11.89
  -4   4   7   41.53   14.61
  -4   4   7   40.70   13.02
  -4   3   2  211.81   20.90
  -4   3   2  219.68   20.57
  -4   3   2  208.18   20.22
  -4   3   3  164.28   18.48
  -4   3   3  179.62   19.06
  -4   3   3  171.88   19.14
  -4   3   4  135.00   18.15
  -4   3   4  150.01   17.85
  -4   3   4  167.40   21.34
  -4   3   4  130.97   17.87
  -4   3   5  102.51   16.89
  -4   3   5   93.33   15.29
  -4   3   5  100.17   17.52
  -4   3   5   95.32   17.04
  -4   3   6  402.56   31.61
  -4   3   6  400.93   29.39
  -4   3   6  475.53   35.38
  -4   3   6  430.52   33.27
  -4   3   7  146.20   21.20
  -4   3   7  229.38   27.08
  -4   2   2   78.37   12.44
  -4   2   2   81.57   11.94
  -4   2   2   84.21   14.20
  -4   2   3  119.41   14.43
  -4   2   3  161.59   15.52
  -4   2   3  127.98   16.59
  -4   2   3  105.48   16.39
  -4   2   4   94.64   14.54
  -4   2   4  119.76   14.54
  -4   2   4  104.57   16.70
  -4   2   4  101.03   16.65
  -4   2   5   94.57   15.74
  -4   2   5  107.13   13.88
  -4   2   5   93.96   16.02
  -4   2   5  118.07   18.56
  -4   2   6  248.06   23.99
  -4   2   6  253.06   26.23
  -4   2   6  261.06   26.40
  -4   2   7   72.84   14.98
  -4   2   7   72.64   18.48
  -4   1   2  115.08   13.66
  -4   1   2  111.13   14.40
  -4   1   2  123.18   16.01
  -4   1   3   67.31   11.29
  -4   1   3   55.74   10.29
  -4   1   3   47.57   11.67
  -4   1   3   63.18   13.43
  -4   1   4   26.32   10.06
  -4   1   4   12.39    7.41
  -4   1   4   28.28   12.04
  -4   1   4   25.24   13.80
  -4   1   5   52.83   10.64
  -4   1   5   47.32   10.74
  -4   1   5   41.13   11.74
  -4   1   5   36.64   12.35
  -4   1   6  215.02   21.25
  -4   1   6  278.24   26.52
  -4   1   6  285.55   28.43
  -4   0   1  389.61   20.85
  -4   0   1  433.49   22.48
  -4   0   2  189.51   15.42
  -4   0   2  180.58   18.41
  -4   0   2  149.40   19.71
  -4   0   3  376.62   20.69
  -4   0   3  373.90   23.06
  -4   0   4  448.68   27.66
  -4   0   4  437.23   26.27
  -4   0   4  515.61   28.92
  -4   0   5  635.56   29.74
  -4   0   5  642.43   34.12
  -4   0   6  769.57   39.68
  -4   0   6  781.59   42.92
  -4   0   6  732.70   44.91
  -4  -1   1  274.46   22.25
  -4  -1   1  267.20   16.30
  -4  -1   1  259.52   19.74
  -4  -1   2   95.90   13.23
  -4  -1   2   83.42    9.56
  -4  -1   2   81.59   12.32
  -4  -1   2   86.65   10.76
  -4  -1   2   75.45   13.00
  -4  -1   3  183.85   17.83
  -4  -1   3  159.21   14.00
  -4  -1   3  160.94   17.10
  -4  -1   3  193.18   14.79
  -4  -1   3  163.51   18.38
  -4  -1   4   12.90    6.99
  -4  -1   4   26.10    8.02
  -4  -1   4    4.70    8.43
  -4  -1   4   15.18   10.06
  -4  -1   5   29.59    9.43
  -4  -1   5   42.69   12.64
  -4  -1   5   43.39   13.05
  -4  -1   6  279.37   23.89
  -4  -1   6  274.48   26.81
  -4  -2   1  168.36   18.38
  -4  -2   1  170.62   16.27
  -4  -2   1  151.36   16.04
  -4  -2   1  163.51   16.47
  -4  -2   2   76.88   13.18
  -4  -2   2   70.08   11.74
  -4  -2   2   70.75   12.64
  -4  -2   2   75.66   11.72
  -4  -2   3   68.49   12.88
  -4  -2   3   55.41   11.41
  -4  -2   3   71.89   13.43
  -4  -2   3   60.89   10.23
  -4  -2   4   90.51   13.93
  -4  -2   4   93.46   14.46
  -4  -2   4  113.95   13.00
  -4  -2   4   92.60   15.42
  -4  -2   5   35.57   10.33
  -4  -2   5   40.80   13.76
  -4  -2   5   28.49    8.72
  -4  -3   0  249.21   23.53
  -4  -3   0  208.49   18.11
  -4  -3   0  200.74   20.85
  -4  -3   1  345.29   25.97
  -4  -3   1  321.55   22.00
  -4  -3   1  344.29   24.79
  -4  -3   2  206.18   20.57
  -4  -3   2  204.79   19.08
  -4  -3   2  217.26   19.78
  -4  -3   2  200.95   19.46
  -4  -3   3  278.61   23.31
  -4  -3   3  290.17   23.25
  -4  -3   3  298.97   22.22
  -4  -3   3  287.59   22.91
  -4  -3   4  162.53   19.74
  -4  -3   4  140.63   16.11
  -4  -3   4  110.65   15.56
  -4  -3   4  123.80   17.93
  -4  -3   5  200.26   21.49
  -4  -3   5  189.71   18.61
  -4  -3   5  229.23   23.43
  -4  -4   0  132.22   18.63
  -4  -4   0  115.59   16.85
  -4  -4   1  155.81   19.28
  -4  -4   1  146.48   17.83
  -4  -4   2  244.92   23.36
  -4  -4   2  239.57   22.08
  -4  -4   3  109.37   16.92
  -4  -4   3  100.92   15.82
  -4  -4   4   34.45   11.06
  -4  -4   4   30.45   11.22
  -4  -4   4   36.20   11.12
  -4  -5  -1   97.38   17.98
  -4  -5  -1   71.00   14.00
  -4  -5   0   63.53   16.06
  -4  -5   0   45.63   12.80
  -4  -5   1   80.66   15.16
  -4  -5   1   68.44   14.64
  -4  -5   2   51.79   13.62
  -4  -5   2   42.12   11.74
  -4  -5   3   61.87   14.96
  -4  -5   3   47.37   13.20
  -4  -5   4   52.00   14.11
  -4  -5   4   67.49   15.06
  -4  -6  -1   63.03   15.14
  -4  -6  -1   83.33   17.97
  -4  -6   0  139.42   20.66
  -4  -6   0  116.04   17.10
  -4  -6   0  151.79   20.37
  -4  -6   0  112.59   18.99
  -4  -6   1  103.11   18.36
  -4  -6   1  102.48   19.19
  -4  -6   2  166.24   21.82
  -4  -6   2  164.92   21.90
  -4  -6   3  101.56   18.46
  -4  -6   3   77.32   16.44
  -4  -7  -1   43.50   15.24
  -4  -7  -1   61.28   18.30
  -4  -7   0   10.93    8.78
  -4  -7   0   51.90   14.93
  -4  -7   0   39.12   15.72
  -4  -7   1   75.50   18.71
  -4  -7   2   90.09   19.69
  -4  -7   3   57.12   15.33
  -4  -8  -1   14.88   15.47
  -4  -8   0   15.89   11.61
  -4  -8   0   16.57   14.10
  -5   5   5   67.93   21.25
  -5   5   5   41.71   15.76
  -5   4   4   84.76   17.40
  -5   4   4  143.71   22.35
  -5   4   5   67.78   17.73
  -5   4   6   54.06   18.61
  -5   4   7   82.47   20.49
  -5   3   4  144.78   20.72
  -5   3   4  159.78   23.11
  -5   3   5  170.20   22.43
  -5   3   5  187.12   25.17
  -5   3   5  129.09   20.85
  -5   3   6   94.52   19.74
  -5   3   6  136.86   24.79
  -5   3   6  106.73   22.20
  -5   3   7  193.03   26.25
  -5   3   7  154.31   25.15
  -5   2   3  303.38   25.17
  -5   2   3  321.13   28.09
  -5   2   4   61.87   14.50
  -5   2   4   51.82   16.74
  -5   2   4   44.61   11.66
  -5   2   5  129.08   19.21
  -5   2   5  112.52   20.31
  -5   2   5  142.83   21.37
  -5   2   6   45.59   13.70
  -5   2   6   60.02   18.45
  -5   2   6   58.49   17.42
  -5   2   7   74.20   16.04
  -5   2   7  124.61   22.95
  -5   1   3  194.36   19.06
  -5   1   3  169.67   21.27
  -5   1   3  165.26   20.46
  -5   1   4  123.13   16.99
  -5   1   4  113.98   16.65
  -5   1   4  112.27   19.38
  -5   1   4   90.54   17.97
  -5   1   5    8.55    9.08
  -5   1   5    3.90   12.30
  -5   1   5    1.25   12.27
  -5   1   6  108.29   18.05
  -5   1   6  117.70   24.27
  -5   1   6  117.29   23.71
  -5   1   7  104.82   17.72
  -5   1   7  139.72   24.54
  -5   0   2  135.10   15.46
  -5   0   2  220.90   19.39
  -5   0   3  790.37   33.87
  -5   0   3  758.26   37.36
  -5   0   4  116.72   19.29
  -5   0   4  135.97   17.10
  -5   0   4  178.62   21.34
  -5   0   5  354.29   31.08
  -5   0   5  501.86   29.09
  -5   0   5  429.97   31.63
  -5   0   5  310.22   34.97
  -5   0   6  487.53   34.10
  -5   0   6  556.57   33.49
  -5   0   6  469.57   37.41
  -5   0   7  274.38   27.18
  -5   0   7  338.63   33.81
  -5  -1   2  183.70   21.90
  -5  -1   2  161.40   19.46
  -5  -1   2  153.73   19.54
  -5  -1   3  130.41   17.90
  -5  -1   3  131.02   18.63
  -5  -1   3  151.29   21.49
  -5  -1   4  124.25   17.35
  -5  -1   4  141.25   19.91
  -5  -1   4  133.19   20.66
  -5  -1   5   22.68   11.57
  -5  -1   5   21.44   11.94
  -5  -1   5   17.75   12.17
  -5  -1   6  329.37   27.94
  -5  -1   6  281.55   28.41
  -5  -1   6  311.87   29.92
  -5  -2   1   31.91   10.96
  -5  -2   2   48.47   13.63
  -5  -2   2   23.51    9.93
  -5  -2   2   26.43    9.78
  -5  -2   3  202.75   22.88
  -5  -2   3  175.27   21.34
  -5  -2   3  180.81   22.18
  -5  -2   4    9.46    9.93
  -5  -2   4   25.04   11.41
  -5  -2   4   22.86   13.17
  -5  -2   5   76.94   14.93
  -5  -2   5   55.07   14.56
  -5  -2   5   53.40   15.29
  -5  -2   6  266.67   26.38
  -5  -2   6  249.02   28.18
  -5  -3   1   92.23   16.77
  -5  -3   1  100.19   15.86
  -5  -3   2  122.42   19.04
  -5  -3   2  109.55   17.27
  -5  -3   2  119.66   17.09
  -5  -3   2  123.10   17.62
  -5  -3   3  107.91   18.81
  -5  -3   3  134.86   18.86
  -5  -3   3  131.15   17.75
  -5  -3   3  133.69   19.63
  -5  -3   4  241.82   25.09
  -5  -3   4  239.61   24.79
  -5  -3   4  224.85   21.95
  -5  -3   4  244.49   25.90
  -5  -3   5  102.06   18.10
  -5  -3   5  121.47   20.64
  -5  -3   6  667.95   42.27
  -5  -4   1  114.27   19.73
  -5  -4   1  118.73   18.48
  -5  -4   2   45.66   13.83
  -5  -4   2   33.22   11.77
  -5  -4   3   99.67   17.80
  -5  -4   3   83.15   15.96
  -5  -4   4   33.99   14.35
  -5  -4   4   29.97   11.42
  -5  -4   5   37.09   12.95
  -5  -4   5   25.15   10.83
  -5  -5   1   27.96   14.33
  -5  -5   1   19.23   12.50
  -5  -5   2   41.36   15.82
  -5  -5   2    4.88   10.39
  -5  -5   3   40.86   15.24
  -5  -5   3   36.86   13.71
  -5  -5   4   66.45   18.16
  -5  -5   4   70.42   15.36
  -5  -6   0    8.15   11.39
  -5  -6   1   66.03   19.11
  -5  -6   1   79.28   18.98
  -5  -6   2   13.70   13.81
  -5  -6   2   36.01   13.95
  -5  -6   3   49.98   16.94
  -5  -6   3   49.21   14.94
  -5  -6   4   42.92   15.38
  -5  -6   4   54.00   16.22
  -5  -7   2   34.19   16.62
  -5  -7   3   24.21   13.93
  -6   3   5   46.27   17.25
  -6   3   5   24.09   17.10
  -6   3   6   29.87   15.54
  -6   3   6   31.78   18.88
  -6   3   6   28.79   17.43
  -6   3   7   43.95   20.42
  -6   3   7   55.11   20.39
  -6   2   4   44.00   14.13
  -6   2   4   37.24   15.82
  -6   2   5   24.79   13.18
  -6   2   5   47.10   18.66
  -6   2   5   29.69   14.40
  -6   2   6   31.68   15.86
  -6   2   6   39.05   20.26
  -6   2   6   49.36   18.10
  -6   2   7    9.66   13.38
  -6   2   7   31.58   18.16
  -6   2   7    1.30   15.29
  -6   2   8   28.67   18.73
  -6   1   4   50.48   14.35
  -6   1   4   55.14   17.85
  -6   1   4   91.10   19.46
  -6   1   5   82.59   17.75
  -6   1   5  102.03   20.37
  -6   1   5  104.29   22.66
  -6   1   6   33.92   14.41
  -6   1   6   52.73   16.85
  -6   1   6   68.72   18.23
  -6   1   7   41.23   14.84
  -6   1   7   45.39   20.01
  -6   1   7   76.63   22.17
  -6   0   3  179.37   21.62
  -6   0   4   75.25   20.47
  -6   0   4  143.37   22.60
  -6   0   4   88.07   23.36
  -6   0   5   73.90   18.85
  -6   0   5  119.36   20.29
  -6   0   5  129.53   24.52
  -6   0   6   68.26   20.36
  -6   0   6   66.71   22.48
  -6   0   7   42.69   17.58
  -6   0   7   96.90   21.55
  -6  -1   3  145.53   22.65
  -6  -1   3  110.05   21.27
  -6  -1   4  118.95   20.77
  -6  -1   4  108.07   20.75
  -6  -1   4   91.79   19.29
  -6  -1   5   92.63   18.94
  -6  -1   5   86.62   19.41
  -6  -1   5   67.61   19.61
  -6  -1   6   78.25   17.65
  -6  -1   6   69.14   19.31
  -6  -1   6   55.99   19.28
  -6  -1   7   25.52   12.72
  -6  -1   7   58.63   19.03
  -6  -2   3  120.66   22.08
  -6  -2   3  110.20   19.84
  -6  -2   4   22.32   14.25
  -6  -2   4   39.15   16.22
  -6  -2   4   40.58   14.79
  -6  -2   5   11.59   12.78
  -6  -2   5   34.37   13.88
  -6  -2   5   29.41   14.23
  -6  -2   6   12.57   12.25
  -6  -2   6   27.68   14.38
  -6  -2   6   21.29   16.67
  -6  -3   2   98.16   19.16
  -6  -3   2  106.38   20.31
  -6  -3   3  131.88   21.93
  -6  -3   3  167.70   25.60
  -6  -3   4  164.16   25.42
  -6  -3   4  123.61   21.92
  -6  -3   4  139.80   21.55
  -6  -3   5   22.95   14.46
  -6  -3   5   43.04   16.57
  -6  -3   5   30.78   15.97
  -6  -3   6  105.20   20.66
  -6  -3   6  115.96   22.40
  -6  -4   2  113.54   21.87
  -6  -4   3  191.97   27.11
  -6  -4   3  180.81   24.36
  -6  -4   4   66.05   19.43
  -6  -4   5   26.17   13.86
  -6  -5   2   35.83   17.53
  -6  -5   2   23.00   14.76
  -6  -5   3   22.28   14.69
  -6  -5   3   21.32   12.57
  -6  -5   4   28.54   14.53
  -6  -5   4   20.09   12.07
  -6  -5   5    0.10   11.54
  -7  -1   4   23.41   17.65
  -7  -1   5   33.77   18.33
  -7  -1   5   35.12   19.21
  -7  -1   5   43.04   18.86
  -7  -1   6   64.11   21.27
  -7  -2   4   30.60   17.78
  -7  -2   4  -18.76   17.33
  -7  -2   5   21.68   15.61
  -7  -2   5  -15.96   17.93
  -7  -2   5   18.26   16.65
  -7  -3   4   30.73   19.44
  -7  -3   5   19.21   17.82
  -7  -3   5   28.16   15.81
   0   0   0    0.00    0.00
;
_shelx_hkl_checksum              35493
_olex2_submission_special_instructions 'No special instructions were received'
loop_
_space_group_symop_operation_xyz
'x, y, z'
loop_
_atom_site_label
_atom_site_type_symbol
_atom_site_fract_x
_atom_site_fract_y
_atom_site_fract_z
_atom_site_U_iso_or_equiv
_atom_site_adp_type
_atom_site_occupancy
_atom_site_site_symmetry_order
_atom_site_calc_flag
_atom_site_refinement_flags_posn
Co1 Co 0.001(5) 0.000(3) 0.000(5) 0.0173(15) Uiso 1 1 d .
N9 N -0.008(14) 0.316(8) -0.002(14) 0.017(4) Uiso 1 1 d D
N10 N -0.013(14) 0.692(8) -0.008(14) 0.017(4) Uiso 1 1 d D
C11 C -0.228(9) 0.410(6) 0.021(8) 0.021(4) Uiso 1 1 d D
H11A H -0.3630 0.3488 -0.0358 0.025 Uiso 1 1 calc R
H11B H -0.2537 0.3800 0.1087 0.025 Uiso 1 1 calc R
C8 C -0.344(5) 0.053(4) 0.7283(15) 0.014(7) Uiso 1 1 d D
C9 C 0.088(9) 0.373(6) -0.110(8) 0.021(4) Uiso 1 1 d D
H9A H -0.0093 0.3176 -0.1861 0.025 Uiso 1 1 calc R
H9B H 0.2481 0.3319 -0.1047 0.025 Uiso 1 1 calc R
C12 C -0.232(12) 0.619(7) 0.002(11) 0.021(4) Uiso 1 1 d D
H12A H -0.3394 0.6477 -0.0759 0.025 Uiso 1 1 calc R
H12B H -0.2879 0.6760 0.0746 0.025 Uiso 1 1 calc R
O3 O -0.524(8) 0.113(5) 0.766(9) 0.040(5) Uiso 1 1 d D
C7 C -0.095(4) 0.015(2) 0.2192(13) 0.024(8) Uiso 1 1 d D
C14 C 0.157(13) 0.597(7) 0.110(10) 0.021(4) Uiso 1 1 d D
H14A H 0.3173 0.6574 0.1083 0.025 Uiso 1 1 calc R
H14B H 0.1076 0.6388 0.1888 0.025 Uiso 1 1 calc R
C10 C 0.095(11) 0.602(7) -0.116(10) 0.021(4) Uiso 1 1 d D
H10A H 0.2596 0.6545 -0.1122 0.025 Uiso 1 1 calc R
H10B H 0.0087 0.6403 -0.1983 0.025 Uiso 1 1 calc R
C13 C 0.182(9) 0.371(6) 0.125(8) 0.021(4) Uiso 1 1 d D
H13A H 0.1299 0.3175 0.2040 0.025 Uiso 1 1 calc R
H13B H 0.3413 0.3360 0.1192 0.025 Uiso 1 1 calc R
C6 C -0.009(4) -0.029(3) 0.452(2) 0.033(11) Uiso 1 1 d D
H6 H 0.1355 -0.0716 0.4376 0.039 Uiso 1 1 calc R
C1 C -0.173(5) 0.025(3) 0.3474(14) 0.027(8) Uiso 1 1 d DG
C2 C -0.389(4) 0.089(4) 0.368(2) 0.028(9) Uiso 1 1 d DG
H2 H -0.4983 0.1251 0.2986 0.034 Uiso 1 1 calc R
C3 C -0.442(4) 0.099(4) 0.493(3) 0.026(9) Uiso 1 1 d DG
H3 H -0.5863 0.1419 0.5070 0.032 Uiso 1 1 calc R
C4 C -0.278(5) 0.045(4) 0.5972(19) 0.026(9) Uiso 1 1 d DG
C5 C -0.062(5) -0.019(3) 0.5764(15) 0.035(10) Uiso 1 1 d DG
H5 H 0.0475 -0.0548 0.6460 0.042 Uiso 1 1 calc R
O1 O 0.115(5) -0.018(4) 0.212(8) 0.040(5) Uiso 1 1 d D
O2 O -0.265(5) 0.041(4) 0.131(3) 0.040(5) Uiso 1 1 d D
O1W O 0.332(10) -0.028(5) -0.053(10) 0.018(6) Uiso 1 1 d .
H1WA H 0.3778 -0.0500 -0.1640 0.027 Uiso 1 1 d GR
H1WB H 0.4585 -0.1581 -0.0125 0.027 Uiso 1 1 d GR
O4 O -0.162(7) -0.012(5) 0.831(5) 0.041(9) Uiso 1 1 d D
loop_
_atom_type_symbol
_atom_type_description
_atom_type_scat_dispersion_real
_atom_type_scat_dispersion_imag
_atom_type_scat_source
C C 0.0033 0.0016 'International Tables Vol C Tables 4.2.6.8 and 6.1.1.4'
H H 0.0000 0.0000 'International Tables Vol C Tables 4.2.6.8 and 6.1.1.4'
Co Co 0.3494 0.9721 'International Tables Vol C Tables 4.2.6.8 and 6.1.1.4'
N N 0.0061 0.0033 'International Tables Vol C Tables 4.2.6.8 and 6.1.1.4'
O O 0.0106 0.0060 'International Tables Vol C Tables 4.2.6.8 and 6.1.1.4'
loop_
_geom_angle_atom_site_label_1
_geom_angle_atom_site_label_2
_geom_angle_atom_site_label_3
_geom_angle
_geom_angle_site_symmetry_1
_geom_angle_site_symmetry_3
N9 Co1 O1 94(4) . .
N9 Co1 O2 78.1(19) . .
N10 Co1 N9 176(6) 1_545 .
N10 Co1 O1 89(4) 1_545 .
N10 Co1 O2 101.5(16) 1_545 .
O1 Co1 O2 61.3(10) . .
O1W Co1 N9 101.2(14) . .
O1W Co1 N10 80.7(13) . 1_545
O1W Co1 O1 97(3) . .
O1W Co1 O2 158(3) . .
O4 Co1 N9 90(4) 1_554 .
O4 Co1 N10 86(4) 1_554 1_545
O4 Co1 O1 166.9(12) 1_554 .
O4 Co1 O2 108(2) 1_554 .
O4 Co1 O1W 94(3) 1_554 .
C11 N9 Co1 121(3) . .
C11 N9 C13 103(5) . .
C9 N9 Co1 104(3) . .
C9 N9 C11 117(10) . .
C9 N9 C13 110(4) . .
C13 N9 Co1 100(6) . .
C12 N10 Co1 109(4) . 1_565
C12 N10 C14 106(9) . .
C12 N10 C10 114(7) . .
C14 N10 Co1 113(5) . 1_565
C10 N10 Co1 118(6) . 1_565
C10 N10 C14 96(6) . .
N9 C11 H11A 107.7 . .
N9 C11 H11B 107.7 . .
H11A C11 H11B 107.1 . .
C12 C11 N9 119(4) . .
C12 C11 H11A 107.7 . .
C12 C11 H11B 107.7 . .
O3 C8 C4 131(5) . .
O3 C8 O4 115(5) . .
O4 C8 C4 113.9(19) . .
N9 C9 H9A 110.4 . .
N9 C9 H9B 110.4 . .
N9 C9 C10 107(4) . .
H9A C9 H9B 108.6 . .
C10 C9 H9A 110.4 . .
C10 C9 H9B 110.4 . .
N10 C12 C11 108(6) . .
N10 C12 H12A 110.1 . .
N10 C12 H12B 110.1 . .
C11 C12 H12A 110.1 . .
C11 C12 H12B 110.1 . .
H12A C12 H12B 108.4 . .
O1 C7 C1 119(3) . .
O2 C7 C1 111(3) . .
O2 C7 O1 130(4) . .
N10 C14 H14A 106.5 . .
N10 C14 H14B 106.5 . .
H14A C14 H14B 106.5 . .
C13 C14 N10 123(4) . .
C13 C14 H14A 106.5 . .
C13 C14 H14B 106.5 . .
N10 C10 C9 114(5) . .
N10 C10 H10A 108.7 . .
N10 C10 H10B 108.7 . .
C9 C10 H10A 108.7 . .
C9 C10 H10B 108.7 . .
H10A C10 H10B 107.6 . .
N9 C13 H13A 112.9 . .
N9 C13 H13B 112.9 . .
C14 C13 N9 94(5) . .
C14 C13 H13A 112.9 . .
C14 C13 H13B 112.9 . .
H13A C13 H13B 110.3 . .
C1 C6 H6 120.0 . .
C1 C6 C5 120.0 . .
C5 C6 H6 120.0 . .
C6 C1 C7 116(2) . .
C2 C1 C7 124(2) . .
C2 C1 C6 120.0 . .
C1 C2 H2 120.0 . .
C3 C2 C1 120.0 . .
C3 C2 H2 120.0 . .
C2 C3 H3 120.0 . .
C2 C3 C4 120.0 . .
C4 C3 H3 120.0 . .
C3 C4 C8 118(2) . .
C5 C4 C8 122(2) . .
C5 C4 C3 120.0 . .
C6 C5 H5 120.0 . .
C4 C5 C6 120.0 . .
C4 C5 H5 120.0 . .
C7 O1 Co1 84(4) . .
C7 O2 Co1 84(2) . .
Co1 O1W H1WA 127.3 . .
Co1 O1W H1WB 123.1 . .
H1WA O1W H1WB 90.6 . .
C8 O4 Co1 151(2) . 1_556
loop_
_geom_bond_atom_site_label_1
_geom_bond_atom_site_label_2
_geom_bond_distance
_geom_bond_site_symmetry_2
Co1 N9 2.20(6) .
Co1 N10 2.15(5) 1_545
Co1 O1 2.22(10) .
Co1 O2 2.22(4) .
Co1 O1W 2.07(2) .
Co1 O4 1.88(7) 1_554
N9 C11 1.51(7) .
N9 C9 1.36(12) .
N9 C13 1.62(15) .
N10 Co1 2.15(5) 1_565
N10 C12 1.32(6) .
N10 C14 1.61(15) .
N10 C10 1.53(8) .
C11 H11A 0.9700 .
C11 H11B 0.9700 .
C11 C12 1.47(7) .
C8 O3 1.250(3) .
C8 C4 1.480(3) .
C8 O4 1.47(6) .
C9 H9A 0.9700 .
C9 H9B 0.9700 .
C9 C10 1.59(6) .
C12 H12A 0.9700 .
C12 H12B 0.9700 .
C7 C1 1.480(3) .
C7 O1 1.250(3) .
C7 O2 1.250(3) .
C14 H14A 0.9700 .
C14 H14B 0.9700 .
C14 C13 1.60(7) .
C10 H10A 0.9700 .
C10 H10B 0.9700 .
C13 H13A 0.9700 .
C13 H13B 0.9700 .
C6 H6 0.9300 .
C6 C1 1.3900 .
C6 C5 1.3900 .
C1 C2 1.3900 .
C2 H2 0.9300 .
C2 C3 1.3900 .
C3 H3 0.9300 .
C3 C4 1.3900 .
C4 C5 1.3900 .
C5 H5 0.9300 .
O1W H1WA 1.2391 .
O1W H1WB 1.2317 .
O4 Co1 1.88(7) 1_556
loop_
_geom_torsion_atom_site_label_1
_geom_torsion_atom_site_label_2
_geom_torsion_atom_site_label_3
_geom_torsion_atom_site_label_4
_geom_torsion
_geom_torsion_site_symmetry_1
_geom_torsion_site_symmetry_4
Co1 N9 C11 C12 -173(7) . .
Co1 N9 C9 C10 -178(5) . .
Co1 N9 C13 C14 180(2) . .
Co1 N10 C12 C11 -170(6) 1_565 .
Co1 N10 C14 C13 -179(2) 1_565 .
Co1 N10 C10 C9 177(5) 1_565 .
N9 C11 C12 N10 -13(10) . .
N9 C9 C10 N10 -2(8) . .
N10 C14 C13 N9 -1(3) . .
C11 N9 C9 C10 45(8) . .
C11 N9 C13 C14 -54(5) . .
C8 C4 C5 C6 178(2) . .
C9 N9 C11 C12 -44(10) . .
C9 N9 C13 C14 71(5) . .
C12 N10 C14 C13 61(5) . .
C12 N10 C10 C9 -54(15) . .
O3 C8 C4 C3 -5(4) . .
O3 C8 C4 C5 177(3) . .
O3 C8 O4 Co1 -30(7) . 1_556
C7 C1 C2 C3 -178(2) . .
C14 N10 C12 C11 -47(7) . .
C14 N10 C10 C9 56(6) . .
C10 N10 C12 C11 57(15) . .
C10 N10 C14 C13 -55(4) . .
C13 N9 C11 C12 77(10) . .
C13 N9 C9 C10 -72(7) . .
C6 C1 C2 C3 0.0 . .
C1 C7 O1 Co1 179.2(15) . .
C1 C7 O2 Co1 -179.3(15) . .
C1 C6 C5 C4 0.0 . .
C1 C2 C3 C4 0.0 . .
C2 C3 C4 C8 -178(2) . .
C2 C3 C4 C5 0.0 . .
C3 C4 C5 C6 0.0 . .
C4 C8 O4 Co1 147(4) . 1_556
C5 C6 C1 C7 177.9(19) . .
C5 C6 C1 C2 0.0 . .
O1 C7 C1 C6 -8(2) . .
O1 C7 C1 C2 169.8(14) . .
O1 C7 O2 Co1 -0.4(9) . .
O2 C7 C1 C6 171.0(15) . .
O2 C7 C1 C2 -11(2) . .
O2 C7 O1 Co1 0.4(9) . .
O4 C8 C4 C3 178(2) . .
O4 C8 C4 C5 0(3) . .
