#------------------------------------------------------------------------------
#$Date: 2016-03-25 10:24:34 +0200 (Fri, 25 Mar 2016) $
#$Revision: 179749 $
#$URL: svn://www.crystallography.net/cod/cif/7/00/45/7004544.cif $
#------------------------------------------------------------------------------
#
# This file is available in the Crystallography Open Database (COD),
# http://www.crystallography.net/
#
# All data on this site have been placed in the public domain by the
# contributors.
#
data_7004544
loop_
_publ_author_name
'Lin, Jiao-Min'
'Guan, Yang-Fan'
'Wang, Dong-Yao'
'Dong, Wen'
'Wang, Xiu-Teng'
'Gao, Song'
_publ_section_title
;
 Syntheses, structures and properties of seven isomorphous 1D
 Ln3+complexes Ln(BTA)(HCOO)(H2O)3 (H2BTA = bis(tetrazoly)amine, Ln =
 Pr, Gd, Eu, Tb, Dy, Er, Yb) and two 3D Ln3+ complexes Ln(HCOO)3 (Ln =
 Pr, Nd)
;
_journal_issue                   44
_journal_name_full               'Dalton Transactions'
_journal_page_first              6165
_journal_page_last               6169
_journal_paper_doi               10.1039/b808394k
_journal_year                    2008
_chemical_formula_sum            'C3 H8 Er N9 O5'
_chemical_formula_weight         417.44
_chemical_name_systematic
;
?
;
_space_group_IT_number           42
_symmetry_cell_setting           orthorhombic
_symmetry_space_group_name_Hall  'F 2 -2'
_symmetry_space_group_name_H-M   'F m m 2'
_atom_sites_solution_hydrogens   geom
_atom_sites_solution_primary     direct
_atom_sites_solution_secondary   difmap
_audit_creation_method           SHELXL-97
_cell_angle_alpha                90.00
_cell_angle_beta                 90.00
_cell_angle_gamma                90.00
_cell_formula_units_Z            4
_cell_length_a                   6.6224(7)
_cell_length_b                   11.2563(10)
_cell_length_c                   14.1921(16)
_cell_measurement_temperature    296(2)
_cell_volume                     1057.93(19)
_computing_cell_refinement       'SAINT (Bruker, 2001-2005)'
_computing_data_collection       ' SMART (Bruker, 2001-2005) '
_computing_data_reduction        SAINT
_computing_molecular_graphics    'SHELXTL (Bruker, 2001-2005)'
_computing_publication_material  SHELXTL
_computing_structure_refinement  'SHELXL-97 (Sheldrick, 1997)'
_computing_structure_solution    'SHELXS-97 (Sheldrick, 1997)'
_diffrn_ambient_temperature      296(2)
_diffrn_measured_fraction_theta_full 1.000
_diffrn_measured_fraction_theta_max 1.000
_diffrn_measurement_device_type  'Bruker SMART APEX CCD area detector'
_diffrn_measurement_method       '\f and \w scans'
_diffrn_radiation_monochromator  graphite
_diffrn_radiation_source         'fine-focus sealed tube'
_diffrn_radiation_type           MoK\a
_diffrn_radiation_wavelength     0.71073
_diffrn_reflns_av_R_equivalents  0.0220
_diffrn_reflns_av_sigmaI/netI    0.0150
_diffrn_reflns_limit_h_max       8
_diffrn_reflns_limit_h_min       -8
_diffrn_reflns_limit_k_max       14
_diffrn_reflns_limit_k_min       -14
_diffrn_reflns_limit_l_max       18
_diffrn_reflns_limit_l_min       -18
_diffrn_reflns_number            4072
_diffrn_reflns_theta_full        27.56
_diffrn_reflns_theta_max         27.56
_diffrn_reflns_theta_min         2.87
_exptl_absorpt_coefficient_mu    7.970
_exptl_absorpt_correction_T_max  0.344
_exptl_absorpt_correction_T_min  0.225
_exptl_absorpt_correction_type   multi-scan
_exptl_absorpt_process_details   'SADABS (Sheldrick, 1996)'
_exptl_crystal_colour            lightred
_exptl_crystal_density_diffrn    2.621
_exptl_crystal_density_meas      ?
_exptl_crystal_density_method    .
_exptl_crystal_description       needle
_exptl_crystal_F_000             788
_exptl_crystal_size_max          0.245
_exptl_crystal_size_mid          0.165
_exptl_crystal_size_min          0.134
_refine_diff_density_max         0.522
_refine_diff_density_min         -1.689
_refine_diff_density_rms         0.296
_refine_ls_abs_structure_details 'Flack H D (1983), Acta Cryst. A39, 876-881'
_refine_ls_abs_structure_Flack   0.48(4)
_refine_ls_extinction_method     none
_refine_ls_goodness_of_fit_ref   1.198
_refine_ls_hydrogen_treatment    constr
_refine_ls_matrix_type           full
_refine_ls_number_parameters     59
_refine_ls_number_reflns         701
_refine_ls_number_restraints     3
_refine_ls_restrained_S_all      1.256
_refine_ls_R_factor_all          0.0217
_refine_ls_R_factor_gt           0.0217
_refine_ls_shift/su_max          0.009
_refine_ls_shift/su_mean         0.002
_refine_ls_structure_factor_coef Fsqd
_refine_ls_weighting_details
'calc w=1/[\s^2^(Fo^2^)+(0.0419P)^2^+0.0000P] where P=(Fo^2^+2Fc^2^)/3'
_refine_ls_weighting_scheme      calc
_refine_ls_wR_factor_gt          0.0523
_refine_ls_wR_factor_ref         0.0523
_reflns_number_gt                701
_reflns_number_total             701
_reflns_threshold_expression     >2sigma(I)
_cod_data_source_file            b808394k.txt
_cod_data_source_block           1
_cod_original_sg_symbol_H-M      Fmm2
_cod_database_code               7004544
loop_
_symmetry_equiv_pos_as_xyz
'x, y, z'
'-x, -y, z'
'-x, y, z'
'x, -y, z'
'x, y+1/2, z+1/2'
'-x, -y+1/2, z+1/2'
'-x, y+1/2, z+1/2'
'x, -y+1/2, z+1/2'
'x+1/2, y, z+1/2'
'-x+1/2, -y, z+1/2'
'-x+1/2, y, z+1/2'
'x+1/2, -y, z+1/2'
'x+1/2, y+1/2, z'
'-x+1/2, -y+1/2, z'
'-x+1/2, y+1/2, z'
'x+1/2, -y+1/2, z'
loop_
_atom_site_label
_atom_site_type_symbol
_atom_site_fract_x
_atom_site_fract_y
_atom_site_fract_z
_atom_site_U_iso_or_equiv
_atom_site_adp_type
_atom_site_occupancy
_atom_site_symmetry_multiplicity
_atom_site_calc_flag
_atom_site_refinement_flags
_atom_site_disorder_assembly
_atom_site_disorder_group
Er1 Er 0.0000 0.0000 0.4609 0.01116(12) Uani 1 4 d S . .
O1 O 0.3362(8) 0.0000 0.458(3) 0.0411(17) Uani 1 2 d S . .
O2 O 0.0000 0.0000 0.6242(7) 0.048(4) Uani 1 4 d SD . .
H2A H 0.0000 -0.0687 0.6435 0.072 Uiso 1 2 d SRD . .
O3 O 0.0000 0.1928(6) 0.5052(5) 0.0375(18) Uani 1 2 d SD . .
H3A H -0.1216 0.2325 0.5143 0.056 Uiso 1 1 d RD . .
N1 N 0.0000 0.1254(6) 0.3169(5) 0.0200(13) Uani 1 2 d S . .
N2 N 0.0000 0.2474(7) 0.3266(6) 0.0272(16) Uani 1 2 d S . .
N3 N 0.0000 0.2925(17) 0.2456(10) 0.018(4) Uani 1 2 d S . .
N4 N 0.0000 0.207(2) 0.1805(15) 0.037(5) Uani 1 2 d S . .
N5 N 0.0000 0.0000 0.1792(7) 0.026(2) Uani 1 4 d S . .
H5 H 0.0000 0.0000 0.1186 0.031 Uiso 1 4 d SR . .
C1 C 0.0000 0.1082(7) 0.2244(5) 0.0192(15) Uani 1 2 d S . .
C2 C 0.5000 0.0000 0.4947(9) 0.022(2) Uani 1 4 d S . .
H2 H 0.5000 0.0000 0.5602 0.027 Uiso 1 4 calc SR . .
loop_
_atom_site_aniso_label
_atom_site_aniso_U_11
_atom_site_aniso_U_22
_atom_site_aniso_U_33
_atom_site_aniso_U_23
_atom_site_aniso_U_13
_atom_site_aniso_U_12
Er1 0.01201(17) 0.01260(17) 0.00889(18) 0.000 0.000 0.000
O1 0.014(2) 0.051(3) 0.058(5) 0.000 -0.004(10) 0.000
O2 0.110(12) 0.017(5) 0.016(5) 0.000 0.000 0.000
O3 0.076(6) 0.018(3) 0.019(3) 0.000(3) 0.000 0.000
N1 0.031(4) 0.016(3) 0.013(3) 0.001(2) 0.000 0.000
N2 0.042(4) 0.016(3) 0.024(4) 0.005(3) 0.000 0.000
N3 0.039(10) 0.013(8) 0.000(6) 0.005(5) 0.000 0.000
N4 0.055(14) 0.024(10) 0.031(11) -0.001(7) 0.000 0.000
N5 0.057(7) 0.016(5) 0.004(4) 0.000 0.000 0.000
C1 0.024(4) 0.021(4) 0.012(3) 0.000(3) 0.000 0.000
C2 0.022(6) 0.028(6) 0.016(4) 0.000 0.000 0.000
loop_
_atom_type_symbol
_atom_type_description
_atom_type_scat_dispersion_real
_atom_type_scat_dispersion_imag
_atom_type_scat_source
C C 0.0033 0.0016 'International Tables Vol C Tables 4.2.6.8 and 6.1.1.4'
H H 0.0000 0.0000 'International Tables Vol C Tables 4.2.6.8 and 6.1.1.4'
Er Er -0.2586 4.9576 'International Tables Vol C Tables 4.2.6.8 and 6.1.1.4'
N N 0.0061 0.0033 'International Tables Vol C Tables 4.2.6.8 and 6.1.1.4'
O O 0.0106 0.0060 'International Tables Vol C Tables 4.2.6.8 and 6.1.1.4'
loop_
_geom_angle_atom_site_label_1
_geom_angle_atom_site_label_2
_geom_angle_atom_site_label_3
_geom_angle
_geom_angle_site_symmetry_1
_geom_angle_site_symmetry_3
_geom_angle_publ_flag
O1 Er1 O1 177.8(19) 2 . ?
O1 Er1 O3 90.3(3) 2 . ?
O1 Er1 O3 90.3(3) . . ?
O1 Er1 O3 90.3(3) 2 2 ?
O1 Er1 O3 90.3(3) . 2 ?
O3 Er1 O3 147.6(4) . 2 ?
O1 Er1 O2 91.1(9) 2 . ?
O1 Er1 O2 91.1(9) . . ?
O3 Er1 O2 73.81(18) . . ?
O3 Er1 O2 73.81(18) 2 . ?
O1 Er1 N1 89.1(8) 2 2 ?
O1 Er1 N1 89.1(8) . 2 ?
O3 Er1 N1 140.8(2) . 2 ?
O3 Er1 N1 71.5(2) 2 2 ?
O2 Er1 N1 145.35(16) . 2 ?
O1 Er1 N1 89.1(8) 2 . ?
O1 Er1 N1 89.1(8) . . ?
O3 Er1 N1 71.5(2) . . ?
O3 Er1 N1 140.8(2) 2 . ?
O2 Er1 N1 145.35(16) . . ?
N1 Er1 N1 69.3(3) 2 . ?
C2 O1 Er1 153(3) . . ?
Er1 O2 H2A 109.5 . . ?
Er1 O3 H3A 120.0 . . ?
C1 N1 N2 104.1(7) . . ?
C1 N1 Er1 136.9(6) . . ?
N2 N1 Er1 118.9(5) . . ?
N3 N2 N1 108.1(10) . . ?
N2 N3 N4 110.0(10) . . ?
C1 N4 N3 106.9(12) . . ?
C1 N5 C1 124.5(10) . 2 ?
C1 N5 H5 117.8 . . ?
C1 N5 H5 117.8 2 . ?
N4 C1 N1 110.8(12) . . ?
N4 C1 N5 123.0(11) . . ?
N1 C1 N5 126.2(8) . . ?
O1 C2 O1 129(3) . 2_655 ?
O1 C2 H2 115.7 . . ?
O1 C2 H2 115.7 2_655 . ?
loop_
_geom_bond_atom_site_label_1
_geom_bond_atom_site_label_2
_geom_bond_distance
_geom_bond_site_symmetry_2
_geom_bond_publ_flag
Er1 O1 2.227(5) 2 ?
Er1 O1 2.227(5) . ?
Er1 O3 2.260(7) . ?
Er1 O3 2.260(7) 2 ?
Er1 O2 2.318(10) . ?
Er1 N1 2.483(7) 2 ?
Er1 N1 2.483(7) . ?
O1 C2 1.204(17) . ?
O2 H2A 0.8200 . ?
O3 H3A 0.9301 . ?
N1 C1 1.328(10) . ?
N1 N2 1.380(10) . ?
N2 N3 1.257(17) . ?
N3 N4 1.334(11) . ?
N4 C1 1.28(3) . ?
N5 C1 1.376(9) . ?
N5 C1 1.376(9) 2 ?
N5 H5 0.8599 . ?
C2 O1 1.204(17) 2_655 ?
C2 H2 0.9300 . ?
