#------------------------------------------------------------------------------
#$Date: 2021-06-05 22:00:24 +0300 (Sat, 05 Jun 2021) $
#$Revision: 266101 $
#$URL: file:///home/coder/svn-repositories/cod/cif/7/70/73/7707338.cif $
#------------------------------------------------------------------------------
#
# This file is available in the Crystallography Open Database (COD),
# http://www.crystallography.net/
#
# All data on this site have been placed in the public domain by the
# contributors.
#
data_7707338
loop_
_publ_author_name
'Cui, Ruoyu'
'Niu, Helin'
'Sheng, Enhong'
_publ_section_title
;
 Coordination-induced spontaneous resolution of a TPPE-based MOF and its
 use as a crystalline sponge in guest determination.
;
_journal_issue                   21
_journal_name_full
'Dalton transactions (Cambridge, England : 2003)'
_journal_page_first              7186
_journal_page_last               7190
_journal_paper_doi               10.1039/d1dt00928a
_journal_volume                  50
_journal_year                    2021
_chemical_formula_moiety         'C46 H32 Cl2 Co N4'
_chemical_formula_sum            'C46 H32 Cl2 Co N4'
_chemical_formula_weight         770.58
_space_group_crystal_system      orthorhombic
_space_group_IT_number           23
_space_group_name_Hall           'I 2 2'
_space_group_name_H-M_alt        'I 2 2 2'
_atom_sites_solution_hydrogens   geom
_atom_sites_solution_primary     dual
_audit_creation_date             2020-12-11
_audit_creation_method
;
Olex2 1.3
(compiled 2020.11.12 svn.r5f609507 for OlexSys, GUI svn.r6226)
;
_audit_update_record
;
2021-04-30 deposited with the CCDC.	2021-05-05 downloaded from the CCDC.
;
_cell_angle_alpha                90
_cell_angle_beta                 90
_cell_angle_gamma                90
_cell_formula_units_Z            2
_cell_length_a                   11.969(14)
_cell_length_b                   14.578(16)
_cell_length_c                   17.092(20)
_cell_measurement_reflns_used    1379
_cell_measurement_temperature    298(2)
_cell_measurement_theta_max      24.56
_cell_measurement_theta_min      3.25
_cell_volume                     2982(6)
_computing_molecular_graphics    'Olex2 1.3 (Dolomanov et al., 2009)'
_computing_publication_material  'Olex2 1.3 (Dolomanov et al., 2009)'
_computing_structure_refinement  'XL  (Sheldrick, 2008)'
_computing_structure_solution    'SHELXT 2014/4 (Sheldrick, 2014)'
_diffrn_ambient_temperature      298(2)
_diffrn_measured_fraction_theta_full 0.994
_diffrn_measured_fraction_theta_max 0.982
_diffrn_measurement_device_type  'CCD area detector'
_diffrn_measurement_method       'phi and omega scans'
_diffrn_radiation_monochromator  graphite
_diffrn_radiation_type           MoK\a
_diffrn_radiation_wavelength     0.71073
_diffrn_reflns_av_R_equivalents  0.0454
_diffrn_reflns_av_unetI/netI     0.0795
_diffrn_reflns_Laue_measured_fraction_full 0.994
_diffrn_reflns_Laue_measured_fraction_max 0.982
_diffrn_reflns_limit_h_max       15
_diffrn_reflns_limit_h_min       -7
_diffrn_reflns_limit_k_max       18
_diffrn_reflns_limit_k_min       -18
_diffrn_reflns_limit_l_max       19
_diffrn_reflns_limit_l_min       -22
_diffrn_reflns_number            5381
_diffrn_reflns_point_group_measured_fraction_full 0.974
_diffrn_reflns_point_group_measured_fraction_max 0.949
_diffrn_reflns_theta_full        25.242
_diffrn_reflns_theta_max         27.526
_diffrn_reflns_theta_min         2.077
_diffrn_source_current           30.0
_diffrn_source_power             1.5
_diffrn_source_voltage           50.0
_exptl_absorpt_coefficient_mu    0.402
_exptl_absorpt_correction_type   none
_exptl_crystal_colour            deep-red
_exptl_crystal_density_diffrn    0.858
_exptl_crystal_description       rectangle
_exptl_crystal_F_000             794
_refine_diff_density_max         0.533
_refine_diff_density_min         -0.275
_refine_diff_density_rms         0.053
_refine_ls_abs_structure_details
;
 Flack x determined using 841 quotients [(I+)-(I-)]/[(I+)+(I-)]
 (Parsons, Flack and Wagner, Acta Cryst. B69 (2013) 249-259).
;
_refine_ls_abs_structure_Flack   0.08(2)
_refine_ls_extinction_method     none
_refine_ls_goodness_of_fit_ref   0.916
_refine_ls_hydrogen_treatment    constr
_refine_ls_matrix_type           full
_refine_ls_number_parameters     122
_refine_ls_number_reflns         3288
_refine_ls_number_restraints     0
_refine_ls_restrained_S_all      0.916
_refine_ls_R_factor_all          0.0635
_refine_ls_R_factor_gt           0.0450
_refine_ls_shift/su_max          0.000
_refine_ls_shift/su_mean         0.000
_refine_ls_structure_factor_coef Fsqd
_refine_ls_weighting_details
'w=1/[\s^2^(Fo^2^)+(0.0746P)^2^] where P=(Fo^2^+2Fc^2^)/3'
_refine_ls_weighting_scheme      calc
_refine_ls_wR_factor_gt          0.1200
_refine_ls_wR_factor_ref         0.1309
_reflns_Friedel_coverage         0.723
_reflns_Friedel_fraction_full    0.948
_reflns_Friedel_fraction_max     0.906
_reflns_number_gt                2470
_reflns_number_total             3288
_reflns_threshold_expression     'I > 2\s(I)'
_cod_data_source_file            d1dt00928a2.cif
_cod_data_source_block           a
_cod_depositor_comments
'Adding full bibliography for 7707332--7707338.cif.'
_cod_database_code               7707338
_shelx_shelxl_version_number     2014/7
_shelx_space_group_comment
;
The symmetry employed for this shelxl refinement is uniquely defined
by the following loop, which should always be used as a source of
symmetry information in preference to the above space-group names.
They are only intended as comments.
;
_olex2_refinement_description
;
1. Fixed Uiso
 At 1.2 times of:
  All C(H) groups
2.a Aromatic/amide H refined with riding coordinates:
 C9(H9), C7(H7), C11(H11), C12(H12), C6(H6), C3(H3), C10(H10), C4(H4)
;
_smtbx_masks_void_probe_radius   1.2
_smtbx_masks_void_truncation_radius 1.2
_shelx_res_file
;
    a.res created by SHELXL-2014/7

TITL a_b.res in I222
REM Old TITL a in I222
REM SHELXT solution in I222
REM R1 0.165, Rweak 0.015, Alpha 0.030, Orientation as input
REM Flack x = 0.106 ( 0.021 ) from Parsons' quotients
REM Formula found by SHELXT: C38 N16 Cl2 Co
CELL 0.71073 11.9688 14.5784 17.0916 90 90 90
ZERR 2 0.0144 0.0164 0.0195 0 0 0
LATT -2
SYMM -X,-Y,+Z
SYMM -X,+Y,-Z
SYMM +X,-Y,-Z
SFAC C H Cl Co N
UNIT 92 64 4 2 8

L.S. 20
PLAN  11
CONF
BOND $H
LIST 6
MORE -1
fmap 2
acta
ABIN
REM <olex2.extras>
REM <HklSrc "%.\\a.hkl">
REM </olex2.extras>

WGHT    0.074600
FVAR       0.38061
CO1   4    0.500000    0.500000    0.500000    10.25000    0.04679    0.02402 =
         0.01592    0.00000    0.00000    0.00000
CL1   3    0.702004    0.500000    0.500000    10.50000    0.04514    0.04817 =
         0.03003    0.00449    0.00000    0.00000
N1    5    0.496909    0.604064    0.592434    11.00000    0.05383    0.03530 =
         0.02668   -0.00753    0.00345   -0.00076
C2    1    0.500638    0.898697    0.926256    11.00000    0.04774    0.02429 =
         0.02143   -0.00548    0.00094   -0.00686
C8    1    0.497367    0.725218    0.721529    11.00000    0.04767    0.03185 =
         0.03264   -0.00918    0.00506    0.00076
C5    1    0.498400    0.785367    0.792180    11.00000    0.05078    0.03500 =
         0.02669   -0.00810    0.00510   -0.00848
C1    1    0.500000    0.953916    1.000000    10.50000    0.05192    0.02759 =
         0.01321    0.00000   -0.00861    0.00000
C9    1    0.422258    0.651234    0.716318    11.00000    0.06112    0.06343 =
         0.03533   -0.02231    0.01381   -0.01336
AFIX  43
H9    2    0.371616    0.640268    0.756513    11.00000   -1.20000
AFIX   0
C7    1    0.582072    0.906847    0.869011    11.00000    0.05193    0.04769 =
         0.02773   -0.01221    0.00203   -0.01411
AFIX  43
H7    2    0.637699    0.950978    0.874150    11.00000   -1.20000
AFIX   0
C11   1    0.568411    0.674738    0.598128    11.00000    0.06050    0.04467 =
         0.03446   -0.00995    0.01646   -0.01116
AFIX  43
H11   2    0.619432    0.683396    0.557759    11.00000   -1.20000
AFIX   0
C12   1    0.570875    0.734721    0.659536    11.00000    0.07330    0.04515 =
         0.04219   -0.01922    0.01272   -0.01614
AFIX  43
H12   2    0.622471    0.782420    0.659680    11.00000   -1.20000
AFIX   0
C6    1    0.581261    0.850320    0.804824    11.00000    0.04557    0.05866 =
         0.03588   -0.02068    0.01233   -0.01332
AFIX  43
H6    2    0.638516    0.855741    0.768330    11.00000   -1.20000
AFIX   0
C3    1    0.417924    0.831905    0.916141    11.00000    0.07970    0.05855 =
         0.03563   -0.02128    0.02680   -0.02838
AFIX  43
H3    2    0.364244    0.823123    0.954762    11.00000   -1.20000
AFIX   0
C10   1    0.423965    0.594634    0.650983    11.00000    0.05734    0.05281 =
         0.03791   -0.01958    0.01132   -0.01747
AFIX  43
H10   2    0.371541    0.547692    0.647844    11.00000   -1.20000
AFIX   0
C4    1    0.415486    0.778504    0.848609    11.00000    0.05885    0.05831 =
         0.05363   -0.02935    0.01503   -0.02298
AFIX  43
H4    2    0.357048    0.737373    0.841175    11.00000   -1.20000
AFIX   0
HKLF 4

REM  a_b.res in I222
REM R1 =  0.0450 for    2470 Fo > 4sig(Fo)  and  0.0635 for all    3288 data
REM    122 parameters refined using      0 restraints

END

WGHT      0.0583      0.0000

REM Highest difference peak  0.533,  deepest hole -0.275,  1-sigma level  0.053
Q1    1   0.5824  0.5000  0.5000  10.50000  0.05    0.38
Q2    1   0.5000  1.0000  1.0000  10.25000  0.05    0.28
Q3    1   0.6006  0.7026  0.6960  11.00000  0.05    0.26
Q4    1   0.4993  0.8033  0.7787  11.00000  0.05    0.24
Q5    1   0.3923  0.7138  0.6908  11.00000  0.05    0.22
Q6    1   0.6003  0.7973  0.8288  11.00000  0.05    0.22
Q7    1   0.5018  0.8524  0.9270  11.00000  0.05    0.21
Q8    1   0.5599  0.7914  0.8071  11.00000  0.05    0.20
Q9    1   0.5822  0.8741  0.8991  11.00000  0.05    0.19
Q10   1   0.6082  0.9103  0.8822  11.00000  0.05    0.19
Q11   1   0.5531  0.8861  0.9050  11.00000  0.05    0.18
;
_shelx_res_checksum              52413
_shelx_fab_file
;
-15 -4 -1 0.6397 -1.5259
-15 -3 -4 1.6298 1.3493
-15 -3 -2 -1.9407 2.4095
-15 -2 -3 -0.6303 -0.9404
-15 -2 -1 1.8767 1.0143
-15 -1 -4 0.1487 -1.5890
-15 -1 -2 -1.1069 -1.4844
-14 -7 -3 -0.6814 2.9768
-14 -7 -1 0.5224 0.5324
-14 -6 -6 -0.7666 0.2676
-14 -6 -4 0.1533 -1.2030
-14 -6 -2 0.3622 -4.9254
-14 -5 -7 -0.8888 0.4158
-14 -5 -5 1.6609 -0.4755
-14 -5 -3 0.0699 5.9953
-14 -5 -1 -2.2963 2.1812
-14 -4 -8 0.3051 -0.5450
-14 -4 -6 -0.9333 0.2666
-14 -4 -4 -2.7788 0.3121
-14 -4 -2 2.1441 -5.3995
-14 -3 -7 1.3657 -0.6437
-14 -3 -5 1.5222 -1.7959
-14 -3 -3 0.2710 0.5040
-14 -3 -1 -2.2979 1.7538
-14 -2 -8 -2.1311 -0.0903
-14 -2 -6 0.1209 -0.0616
-14 -2 -4 -0.1042 3.3479
-14 -2 -2 -0.5427 0.8998
-14 -1 -9 1.3442 -0.6752
-14 -1 -7 -0.1666 -0.6191
-14 -1 -5 1.2553 -0.9886
-14 -1 -3 0.6813 -3.2038
-14 -1 -1 1.6493 -2.1674
-13 -10 -1 -0.9511 -1.5385
-13 -9 -4 0.7885 -0.5583
-13 -9 -2 0.4408 3.6243
-13 -8 -7 -1.2085 0.3065
-13 -8 -5 -1.3872 -0.0372
-13 -8 -3 -1.7426 -0.8722
-13 -8 -1 -3.1707 -3.2420
-13 -7 -8 0.3007 -2.1831
-13 -7 -6 0.4663 1.5502
-13 -7 -4 0.5936 -3.1348
-13 -7 -2 1.4331 1.7391
-13 -6 -9 0.7892 -0.4596
-13 -6 -7 -0.7181 -1.1551
-13 -6 -5 1.4694 2.3477
-13 -6 -3 1.0972 1.4264
-13 -6 -1 -0.9067 -1.3210
-13 -5 -10 0.0044 2.2657
-13 -5 -8 -0.7694 -0.0970
-13 -5 -6 2.0493 3.2821
-13 -5 -4 -1.9466 -2.9541
-13 -5 -2 0.6923 1.5472
-13 -4 -11 0.0620 0.3168
-13 -4 -9 0.2110 0.3781
-13 -4 -7 -1.3146 -3.7110
-13 -4 -5 -1.9943 -0.3416
-13 -4 -3 -0.7311 0.8866
-13 -4 -1 -2.0506 -0.5795
-13 -3 -10 -0.6799 0.9283
-13 -3 -8 1.3415 -0.4861
-13 -3 -6 1.2123 3.0045
-13 -3 -4 0.2751 -2.6951
-13 -3 -2 2.6836 -0.4875
-13 -2 -11 2.0733 -2.7950
-13 -2 -9 -1.3043 0.2825
-13 -2 -7 -0.6659 0.6826
-13 -2 -5 0.7247 0.0295
-13 -2 -3 -0.0906 1.7798
-13 -2 -1 -3.0153 -1.5286
-13 -1 -10 -0.8501 1.8068
-13 -1 -8 3.9328 -1.8412
-13 -1 -6 -3.5067 -1.4834
-13 -1 -4 1.1457 0.3789
-13 -1 -2 1.1298 1.2107
-12 -11 -5 -0.4893 -1.3142
-12 -11 -3 1.2587 -0.9337
-12 -11 -1 -2.0610 -0.1214
-12 -10 -6 1.5561 0.9639
-12 -10 -4 -0.3585 1.8686
-12 -10 -2 -0.6732 -0.4450
-12 -9 -9 -2.1996 0.2073
-12 -9 -7 0.4452 0.8994
-12 -9 -5 -0.6041 -1.7745
-12 -9 -3 -1.0501 1.2226
-12 -9 -1 0.9329 1.4245
-12 -8 -10 0.5926 -0.3986
-12 -8 -8 1.4323 -1.0440
-12 -8 -6 -0.0057 -0.7648
-12 -8 -4 0.5409 1.4343
-12 -8 -2 2.0481 -3.9987
-12 -7 -11 -0.6342 -1.2060
-12 -7 -9 -2.1495 -0.4217
-12 -7 -7 -1.7502 0.6113
-12 -7 -5 0.8642 -0.3422
-12 -7 -3 -1.9962 -1.4283
-12 -7 -1 -0.2792 2.7315
-12 -6 -12 1.4598 -0.2893
-12 -6 -10 -0.4637 3.5633
-12 -6 -8 1.7217 0.5887
-12 -6 -6 -0.2961 -0.1459
-12 -6 -4 -1.9002 2.3917
-12 -6 -2 2.0178 1.9442
-12 -5 -11 0.8286 -1.8210
-12 -5 -9 1.4119 -0.5884
-12 -5 -7 1.2995 1.6614
-12 -5 -5 2.1711 1.1085
-12 -5 -3 1.7111 -1.9473
-12 -5 -1 -0.7231 -0.7332
-12 -4 -12 -1.1964 -1.4859
-12 -4 -10 -1.5180 -1.5663
-12 -4 -8 -1.4663 -3.0359
-12 -4 -6 -1.1741 -5.0125
-12 -4 -4 -0.7162 -3.8573
-12 -4 -2 -1.1697 0.4028
-12 -3 -13 2.8846 1.4368
-12 -3 -11 1.1114 1.7132
-12 -3 -9 -0.5800 3.0322
-12 -3 -7 -0.6622 5.9726
-12 -3 -5 -0.2298 2.6018
-12 -3 -3 -0.1581 2.9316
-12 -3 -1 0.2688 -1.0658
-12 -2 -12 -2.0318 -1.4514
-12 -2 -10 1.2564 -3.1166
-12 -2 -8 1.5867 -2.7451
-12 -2 -6 -1.6281 -0.1899
-12 -2 -4 1.8681 1.3749
-12 -2 -2 -0.9330 -0.1507
-12 -1 -13 0.6346 1.9156
-12 -1 -11 -1.7333 1.7233
-12 -1 -9 -0.2863 2.0893
-12 -1 -7 1.9886 -0.0097
-12 -1 -5 -1.2641 -4.0509
-12 -1 -3 -0.0623 -1.1390
-12 -1 -1 0.6082 0.4402
-11 -13 -2 0.1775 0.5630
-11 -12 -5 0.0514 0.1533
-11 -12 -3 -0.5665 -0.6072
-11 -12 -1 -0.5835 -1.4509
-11 -11 -8 -0.7390 0.5190
-11 -11 -6 0.7424 1.4672
-11 -11 -4 -0.4833 -0.3859
-11 -11 -2 -0.1492 -0.9089
-11 -10 -9 2.2205 1.2133
-11 -10 -7 0.0785 0.7374
-11 -10 -5 1.1459 -0.5039
-11 -10 -3 -0.6551 2.6211
-11 -10 -1 -2.1698 -0.0449
-11 -9 -10 0.2517 -0.3643
-11 -9 -8 -1.5655 -1.7840
-11 -9 -6 -0.7480 -0.3138
-11 -9 -4 -0.1822 -0.0118
-11 -9 -2 0.4399 -1.6329
-11 -8 -11 0.6537 -0.8218
-11 -8 -9 0.1293 -0.6883
-11 -8 -7 0.1064 0.2777
-11 -8 -5 1.5184 -2.1268
-11 -8 -3 0.8900 1.9552
-11 -8 -1 0.8539 -0.8833
-11 -7 -12 -3.8578 1.1923
-11 -7 -10 0.6526 0.8289
-11 -7 -8 0.4374 -0.1622
-11 -7 -6 -0.8713 3.2651
-11 -7 -4 -1.4672 -1.7652
-11 -7 -2 0.0077 0.1158
-11 -6 -13 1.3765 -0.5119
-11 -6 -11 1.0966 0.1436
-11 -6 -9 0.5782 4.0796
-11 -6 -7 -0.4455 -0.8207
-11 -6 -5 0.7920 -0.8771
-11 -6 -3 -1.2992 4.5109
-11 -6 -1 -1.4971 -1.7309
-11 -5 -14 -0.5584 1.4837
-11 -5 -12 1.1577 1.3762
-11 -5 -10 -1.4498 -3.7956
-11 -5 -8 -0.0385 -2.8421
-11 -5 -6 -1.2789 1.3386
-11 -5 -4 2.4944 -4.7729
-11 -5 -2 0.8083 -2.2175
-11 -4 -13 0.1952 -2.4008
-11 -4 -11 -1.1177 -2.4208
-11 -4 -9 -0.1686 1.6990
-11 -4 -7 0.3245 -1.0180
-11 -4 -5 0.3763 -0.9649
-11 -4 -3 -3.1414 5.7709
-11 -4 -1 1.5883 -0.7516
-11 -3 -14 -0.5186 2.4149
-11 -3 -12 1.3563 2.4829
-11 -3 -10 0.4532 -0.2689
-11 -3 -8 1.1058 1.4070
-11 -3 -6 -0.0456 3.7991
-11 -3 -4 0.5804 -1.0028
-11 -3 -2 1.9812 -2.3185
-11 -2 -15 -0.2009 -0.3415
-11 -2 -13 0.3775 0.2932
-11 -2 -11 -0.4152 2.2634
-11 -2 -9 -1.2091 -0.2980
-11 -2 -7 0.7332 -3.2836
-11 -2 -5 0.3646 -0.3085
-11 -2 -3 -1.7586 2.1910
-11 -2 -1 1.2248 -0.2274
-11 -1 -14 -5.1952 -0.3965
-11 -1 -12 1.5801 -1.5628
-11 -1 -10 -0.4359 -2.0832
-11 -1 -8 -0.4021 1.4319
-11 -1 -6 0.2381 1.2519
-11 -1 -4 -2.2631 -2.8097
-11 -1 -2 2.0896 -1.3180
-10 -14 -4 -2.1421 0.9301
-10 -14 -2 -1.6677 0.9169
-10 -13 -7 0.2181 0.7480
-10 -13 -5 -1.0419 -0.4456
-10 -13 -3 0.9644 -1.2451
-10 -13 -1 -0.7668 -2.3763
-10 -12 -8 -0.2516 0.2792
-10 -12 -6 1.3227 -0.2437
-10 -12 -4 2.3944 1.3295
-10 -12 -2 0.7294 1.0096
-10 -11 -11 -0.5088 0.1936
-10 -11 -9 -2.0064 -2.4606
-10 -11 -7 1.2378 1.1383
-10 -11 -5 -2.3593 -2.0705
-10 -11 -3 -1.1903 1.9108
-10 -11 -1 -0.9668 -1.3599
-10 -10 -12 -0.1545 -0.5327
-10 -10 -10 0.6073 2.8102
-10 -10 -8 0.5578 1.2607
-10 -10 -6 -2.2350 -1.2170
-10 -10 -4 1.3998 -0.5485
-10 -10 -2 -0.0922 -1.7077
-10 -9 -13 0.2251 2.3129
-10 -9 -11 1.5936 -0.5559
-10 -9 -9 -0.3327 -2.5787
-10 -9 -7 2.1359 3.4776
-10 -9 -5 0.0493 -0.0430
-10 -9 -3 1.7413 0.1840
-10 -9 -1 -1.0893 -2.3347
-10 -8 -14 0.5838 -2.1475
-10 -8 -12 -1.7131 -3.3014
-10 -8 -10 -0.0237 0.7541
-10 -8 -8 -0.7543 -2.4123
-10 -8 -6 -0.8095 -1.4246
-10 -8 -4 -0.9483 1.6411
-10 -8 -2 0.2799 6.1043
-10 -7 -13 -0.9161 1.7226
-10 -7 -11 -0.0523 3.0535
-10 -7 -9 0.0511 0.3589
-10 -7 -7 -0.0754 0.4495
-10 -7 -5 0.4868 -1.4404
-10 -7 -3 1.7069 -1.6672
-10 -7 -1 -3.3083 -7.7818
-10 -6 -14 2.8235 0.5089
-10 -6 -12 -0.3107 0.6018
-10 -6 -10 0.2999 -0.7468
-10 -6 -8 1.4062 0.1031
-10 -6 -6 0.7971 4.4591
-10 -6 -4 -2.7841 -3.0914
-10 -6 -2 0.4169 2.3031
-10 -5 -15 -0.4652 -0.6191
-10 -5 -13 0.6597 -2.7445
-10 -5 -11 -0.3576 -2.4057
-10 -5 -9 -0.5505 1.0442
-10 -5 -7 -2.3698 -3.4945
-10 -5 -5 1.6379 1.1559
-10 -5 -3 0.5050 3.8909
-10 -5 -1 -1.3457 -3.7086
-10 -4 -16 -0.3025 -0.5141
-10 -4 -14 -0.4025 0.2206
-10 -4 -12 -1.6157 4.1680
-10 -4 -10 -0.3348 0.7458
-10 -4 -8 0.8635 -3.0973
-10 -4 -6 -0.3220 2.0914
-10 -4 -4 -2.0012 -5.3127
-10 -4 -2 -0.0422 3.2986
-10 -3 -15 0.6316 0.4358
-10 -3 -13 1.3692 -2.1829
-10 -3 -11 -0.0489 -1.8354
-10 -3 -9 0.2040 1.8938
-10 -3 -7 0.1704 -1.1432
-10 -3 -5 2.1482 1.9436
-10 -3 -3 1.3947 -1.1893
-10 -3 -1 -2.2200 -5.5318
-10 -2 -16 -0.2380 -1.1353
-10 -2 -14 -2.0573 3.4990
-10 -2 -12 0.6930 4.4406
-10 -2 -10 1.4056 3.0463
-10 -2 -8 0.8205 2.1505
-10 -2 -6 0.1032 4.5664
-10 -2 -4 -0.7138 1.1748
-10 -2 -2 0.5417 6.2095
-10 -1 -15 0.2585 -1.8431
-10 -1 -13 -1.5722 -5.7782
-10 -1 -11 -1.9055 -5.6388
-10 -1 -9 -0.7387 -4.3767
-10 -1 -7 -0.8414 -4.5810
-10 -1 -5 0.7924 -4.6428
-10 -1 -3 -1.8513 -3.6146
-10 -1 -1 0.2619 -4.1228
-9 -15 -4 -0.7108 -2.2620
-9 -15 -2 1.1445 -0.0689
-9 -14 -7 -1.8477 -1.8589
-9 -14 -5 0.6492 0.3864
-9 -14 -3 -0.0301 -0.2220
-9 -14 -1 -0.1790 -2.8421
-9 -13 -8 1.3506 0.1491
-9 -13 -6 0.1526 4.0956
-9 -13 -4 0.1893 -0.6752
-9 -13 -2 -1.5473 3.5791
-9 -12 -11 0.2707 -0.4405
-9 -12 -9 0.2289 1.6128
-9 -12 -7 -0.0667 -0.1759
-9 -12 -5 -0.8073 -1.3416
-9 -12 -3 0.2567 1.4214
-9 -12 -1 -0.0592 -2.3093
-9 -11 -12 -0.1637 0.0545
-9 -11 -10 -0.5539 -1.2848
-9 -11 -8 0.0997 -3.2998
-9 -11 -6 0.6377 0.0920
-9 -11 -4 1.2536 -3.3092
-9 -11 -2 0.5258 0.9720
-9 -10 -13 0.8959 -0.2606
-9 -10 -11 0.3952 0.5280
-9 -10 -9 -0.5781 2.7767
-9 -10 -7 0.5714 1.2155
-9 -10 -5 -1.1355 0.8109
-9 -10 -3 -1.0381 -0.4859
-9 -10 -1 1.0871 -1.2082
-9 -9 -14 -0.5462 1.5870
-9 -9 -12 -0.0089 1.8552
-9 -9 -10 0.4611 -1.5752
-9 -9 -8 -0.7594 -1.0232
-9 -9 -6 0.3621 1.8352
-9 -9 -4 -0.1818 1.6330
-9 -9 -2 1.2448 1.7197
-9 -8 -15 -0.5288 -1.3511
-9 -8 -13 0.0811 -2.0045
-9 -8 -11 -1.5181 -0.5763
-9 -8 -9 0.0641 -0.0073
-9 -8 -7 0.0732 -0.0960
-9 -8 -5 -0.8763 -0.6237
-9 -8 -3 0.0154 -2.3374
-9 -8 -1 -1.4528 0.3718
-9 -7 -16 0.5797 0.0059
-9 -7 -14 0.9506 1.6940
-9 -7 -12 0.8618 0.2223
-9 -7 -10 -0.3401 -0.3121
-9 -7 -8 -0.7398 -1.2659
-9 -7 -6 1.8287 -3.6368
-9 -7 -4 -0.2729 0.7468
-9 -7 -2 0.1002 -1.7200
-9 -6 -15 -0.9037 -1.4406
-9 -6 -13 1.3902 -0.7668
-9 -6 -11 -0.5271 0.7951
-9 -6 -9 1.1712 0.4352
-9 -6 -7 0.5182 3.5448
-9 -6 -5 -1.7950 2.3150
-9 -6 -3 1.6642 0.4411
-9 -6 -1 -0.2225 0.8220
-9 -5 -16 0.5240 1.1228
-9 -5 -14 -1.5707 2.0064
-9 -5 -12 -0.5367 -0.8372
-9 -5 -10 0.2744 0.3262
-9 -5 -8 0.1723 0.1970
-9 -5 -6 1.6812 -0.7061
-9 -5 -4 -0.9727 1.3923
-9 -5 -2 -0.1674 1.8907
-9 -4 -17 0.4179 -1.5583
-9 -4 -15 1.6062 -0.7107
-9 -4 -13 0.1429 -0.0754
-9 -4 -11 -0.9653 0.0308
-9 -4 -9 1.5353 -2.7088
-9 -4 -7 -1.9806 -1.9416
-9 -4 -5 -2.2533 -1.3126
-9 -4 -3 3.1333 -4.7074
-9 -4 -1 -0.3311 -4.2323
-9 -3 -16 -0.1369 0.9218
-9 -3 -14 -1.7713 1.5718
-9 -3 -12 1.3238 -1.3984
-9 -3 -10 -0.4122 1.4968
-9 -3 -8 -1.0380 5.8218
-9 -3 -6 -0.4163 -0.1149
-9 -3 -4 2.0968 0.8295
-9 -3 -2 -2.3419 5.5380
-9 -2 -17 0.6644 0.6289
-9 -2 -15 1.2031 0.2503
-9 -2 -13 -0.0485 1.0364
-9 -2 -11 -0.9095 2.2656
-9 -2 -9 -0.4719 -0.6095
-9 -2 -7 2.5217 -0.6946
-9 -2 -5 -0.9855 -0.1578
-9 -2 -3 -1.0329 0.2641
-9 -2 -1 1.1703 -2.6452
-9 -1 -16 0.6829 -0.8995
-9 -1 -14 -0.8654 -1.2837
-9 -1 -12 -0.3330 -4.7197
-9 -1 -10 1.8947 -4.9058
-9 -1 -8 -0.2844 -0.7475
-9 -1 -6 -0.8982 -1.4733
-9 -1 -4 1.6249 -0.2223
-9 -1 -2 -0.0975 -0.1338
-8 -16 -2 -0.2171 -2.1288
-8 -15 -7 0.0199 -0.8556
-8 -15 -5 -0.0802 -0.9344
-8 -15 -3 1.1303 0.8255
-8 -15 -1 -1.1771 0.6612
-8 -14 -8 -0.4637 0.0640
-8 -14 -6 -1.3754 1.8993
-8 -14 -4 0.3444 -0.2595
-8 -14 -2 -0.4933 0.5815
-8 -13 -11 0.6775 0.9974
-8 -13 -9 -0.7574 0.3429
-8 -13 -7 2.4365 -0.2569
-8 -13 -5 -0.0104 0.6295
-8 -13 -3 0.4133 -0.9513
-8 -13 -1 -1.1491 -0.1741
-8 -12 -12 -0.7622 -1.1058
-8 -12 -10 0.1780 0.8393
-8 -12 -8 1.3102 -1.5485
-8 -12 -6 -0.9765 -1.9711
-8 -12 -4 0.2077 -2.5798
-8 -12 -2 0.3798 0.5064
-8 -11 -13 -0.8047 -0.6752
-8 -11 -11 0.0189 -0.6631
-8 -11 -9 -1.8782 0.1825
-8 -11 -7 -0.6952 0.6100
-8 -11 -5 0.0894 4.0492
-8 -11 -3 0.4649 0.5012
-8 -11 -1 -2.5566 2.6101
-8 -10 -14 0.7505 1.0907
-8 -10 -12 -0.5888 -0.3021
-8 -10 -10 0.9647 1.2849
-8 -10 -8 0.1378 1.2352
-8 -10 -6 -0.4867 0.8260
-8 -10 -4 -1.7198 -1.5500
-8 -10 -2 1.4914 -0.6865
-8 -9 -15 0.6500 0.0819
-8 -9 -13 -0.7324 0.9321
-8 -9 -11 3.0910 0.0489
-8 -9 -9 -0.2891 -3.5766
-8 -9 -7 1.9095 -2.9340
-8 -9 -5 1.8297 -0.4549
-8 -9 -3 -0.6224 0.4306
-8 -9 -1 -0.2561 0.5705
-8 -8 -16 1.4660 -1.1809
-8 -8 -14 1.9253 0.8274
-8 -8 -12 -2.6403 -3.1235
-8 -8 -10 -1.6913 3.4197
-8 -8 -8 -2.2482 3.1969
-8 -8 -6 -0.4588 2.5793
-8 -8 -4 -0.4989 -1.8358
-8 -8 -2 0.5013 -0.7583
-8 -7 -17 -1.6150 -0.1915
-8 -7 -15 -0.9645 0.3002
-8 -7 -13 -2.1786 0.7490
-8 -7 -11 0.7641 -0.4759
-8 -7 -9 2.7969 -2.4937
-8 -7 -7 0.7424 -0.0026
-8 -7 -5 -2.2352 -2.2804
-8 -7 -3 -1.8648 0.4220
-8 -7 -1 3.4560 2.3416
-8 -6 -16 -0.3649 -1.4312
-8 -6 -14 0.5733 2.0653
-8 -6 -12 1.4987 -1.7487
-8 -6 -10 0.9598 2.1864
-8 -6 -8 -3.0410 -2.4935
-8 -6 -6 1.2979 0.0334
-8 -6 -4 4.7840 -0.8154
-8 -6 -2 0.6859 0.5571
-8 -5 -17 0.9940 0.0276
-8 -5 -15 0.2058 1.8775
-8 -5 -13 -1.3392 -0.3840
-8 -5 -11 -2.0351 -0.0420
-8 -5 -9 3.3249 1.2613
-8 -5 -7 -0.9506 3.6915
-8 -5 -5 -1.2829 1.6679
-8 -5 -3 -2.8231 4.2018
-8 -5 -1 3.0951 -1.6016
-8 -4 -18 -0.3211 0.0911
-8 -4 -16 0.1485 -1.9904
-8 -4 -14 -0.5104 0.5778
-8 -4 -12 1.9597 -0.9724
-8 -4 -10 -1.1709 1.7187
-8 -4 -8 -0.1241 -3.9831
-8 -4 -6 -0.7592 0.9298
-8 -4 -4 2.4283 -4.2930
-8 -4 -2 0.0819 -1.4333
-8 -3 -17 1.2664 -0.4964
-8 -3 -15 -1.0631 1.0361
-8 -3 -13 -0.7598 -2.1380
-8 -3 -11 -1.2180 -3.7834
-8 -3 -9 2.7342 4.1548
-8 -3 -7 0.3811 -1.3863
-8 -3 -5 0.9561 -4.5433
-8 -3 -3 -2.6496 1.3429
-8 -3 -1 1.1698 -2.0828
-8 -2 -18 -0.2195 1.0357
-8 -2 -16 1.5086 -0.4233
-8 -2 -14 2.4695 1.0661
-8 -2 -12 2.1478 1.7768
-8 -2 -10 -2.0811 -0.1848
-8 -2 -8 -2.3584 -3.6882
-8 -2 -6 -4.3220 6.4675
-8 -2 -4 0.1334 1.8545
-8 -2 -2 -0.8296 4.5720
-8 -1 -17 0.0394 -0.5434
-8 -1 -15 -4.8998 1.2354
-8 -1 -13 0.6079 -0.6261
-8 -1 -11 1.3039 1.2626
-8 -1 -9 -2.3990 2.7683
-8 -1 -7 3.2963 -2.4644
-8 -1 -5 2.7516 -1.2217
-8 -1 -3 4.4776 -2.4722
-8 -1 -1 -4.4052 -3.8220
-7 -16 -5 0.2923 -1.1010
-7 -16 -3 1.7765 -0.4210
-7 -16 -1 -1.3891 -2.5137
-7 -15 -8 0.5369 1.6960
-7 -15 -6 -0.3372 1.5810
-7 -15 -4 -1.5612 0.1553
-7 -15 -2 -0.1348 2.0676
-7 -14 -11 -0.9728 -0.2946
-7 -14 -9 0.3755 -1.4354
-7 -14 -7 -0.5493 -0.6159
-7 -14 -5 0.8877 -1.4559
-7 -14 -3 2.0278 0.6034
-7 -14 -1 -1.8931 -1.4667
-7 -13 -12 0.4482 0.7595
-7 -13 -10 0.6466 -0.5142
-7 -13 -8 1.0993 2.1071
-7 -13 -6 0.9006 0.1949
-7 -13 -4 -2.0232 -0.0290
-7 -13 -2 0.5300 1.4760
-7 -12 -13 2.0406 -0.4761
-7 -12 -11 -2.1825 0.6219
-7 -12 -9 0.2802 -0.2413
-7 -12 -7 -2.3413 -2.1392
-7 -12 -5 1.1999 0.5858
-7 -12 -3 0.6202 -1.0942
-7 -12 -1 1.2220 -2.2739
-7 -11 -14 0.4915 -0.2091
-7 -11 -12 -1.0309 -0.7260
-7 -11 -10 1.9245 -0.9960
-7 -11 -8 -0.9230 0.1717
-7 -11 -6 -0.8740 0.2923
-7 -11 -4 -0.3877 0.7625
-7 -11 -2 -0.6573 0.3879
-7 -10 -15 -1.5329 0.6726
-7 -10 -13 0.6827 0.6846
-7 -10 -11 -0.8730 -1.0214
-7 -10 -9 0.4854 1.6143
-7 -10 -7 0.2489 1.3943
-7 -10 -5 0.9500 -0.6517
-7 -10 -3 1.6613 0.7103
-7 -10 -1 -2.1092 0.6086
-7 -9 -16 -0.9089 1.9440
-7 -9 -14 0.6831 0.5595
-7 -9 -12 -1.2749 -0.5147
-7 -9 -10 1.0002 1.6669
-7 -9 -8 0.2413 -0.9635
-7 -9 -6 -0.0848 -3.2462
-7 -9 -4 -2.1195 -0.3956
-7 -9 -2 -0.6989 -0.1113
-7 -8 -17 3.4828 -2.8026
-7 -8 -15 1.1490 -2.0393
-7 -8 -13 0.6352 -0.2379
-7 -8 -11 -0.4459 -1.2811
-7 -8 -9 -0.0608 -0.4467
-7 -8 -7 0.6042 2.4311
-7 -8 -5 1.8779 -0.3192
-7 -8 -3 -0.1265 0.5022
-7 -8 -1 1.3605 -1.4132
-7 -7 -18 -0.2398 1.0719
-7 -7 -16 -1.3492 2.7396
-7 -7 -14 -1.7565 -0.0793
-7 -7 -12 1.4622 -0.4062
-7 -7 -10 0.6828 0.4487
-7 -7 -8 -1.7737 1.3325
-7 -7 -6 -1.3436 1.6826
-7 -7 -4 0.1123 1.6227
-7 -7 -2 1.5408 1.0789
-7 -6 -17 -1.3492 -2.6508
-7 -6 -15 -0.6315 1.9644
-7 -6 -13 -0.7671 0.8561
-7 -6 -11 -0.3478 1.2639
-7 -6 -9 1.4518 -1.2980
-7 -6 -7 -1.3970 -1.9219
-7 -6 -5 1.7382 -4.2104
-7 -6 -3 -1.8459 -0.6912
-7 -6 -1 -2.0268 -0.3407
-7 -5 -18 1.7873 4.3983
-7 -5 -16 1.7930 0.5252
-7 -5 -14 0.1503 0.2312
-7 -5 -12 0.8300 -1.1627
-7 -5 -10 -0.7570 0.6485
-7 -5 -8 1.0993 -1.0525
-7 -5 -6 0.4691 2.2900
-7 -5 -4 1.1911 3.2292
-7 -5 -2 -0.5139 -2.6236
-7 -4 -19 0.0974 -2.9903
-7 -4 -17 -1.4892 -2.9926
-7 -4 -15 0.7288 -1.3361
-7 -4 -13 0.3499 -5.5987
-7 -4 -11 -1.8566 2.1260
-7 -4 -9 -2.9933 3.9902
-7 -4 -7 -0.7342 -0.4613
-7 -4 -5 0.6166 -4.3042
-7 -4 -3 -4.0505 1.9606
-7 -4 -1 1.4152 3.1308
-7 -3 -18 -0.0636 3.2168
-7 -3 -16 1.0858 -0.3503
-7 -3 -14 -3.2427 2.6368
-7 -3 -12 3.7799 -0.8013
-7 -3 -10 0.8043 -0.5894
-7 -3 -8 2.7774 -7.6202
-7 -3 -6 0.7976 2.7148
-7 -3 -4 0.2801 3.9710
-7 -3 -2 1.1819 -2.1250
-7 -2 -19 0.6672 -1.1383
-7 -2 -17 -2.0378 1.2659
-7 -2 -15 1.1073 2.6876
-7 -2 -13 0.1883 -0.8178
-7 -2 -11 -0.7115 0.5323
-7 -2 -9 2.0294 2.1183
-7 -2 -7 -2.2573 1.7966
-7 -2 -5 -0.3769 -2.6695
-7 -2 -3 1.9055 -2.4210
-7 -2 -1 -1.0502 0.3161
-7 -1 -18 -0.7836 -0.0689
-7 -1 -16 2.6658 -3.0187
-7 -1 -14 -1.6059 -1.0570
-7 -1 -12 1.3010 0.2965
-7 -1 -10 -4.5335 4.9610
-7 -1 -8 -0.5721 -1.5693
-7 -1 -6 1.4646 0.4901
-7 -1 -4 -0.9462 1.4715
-7 -1 -2 -0.9729 0.2510
-6 -17 -3 0.7598 0.7155
-6 -17 -1 -0.5938 -0.6010
-6 -16 -8 0.3807 -1.4909
-6 -16 -6 -0.8157 0.2910
-6 -16 -4 0.2918 -1.5828
-6 -16 -2 0.1749 1.5092
-6 -15 -9 -0.2365 0.6392
-6 -15 -7 1.4018 -0.4089
-6 -15 -5 1.2268 -0.6919
-6 -15 -3 -1.5884 0.4708
-6 -15 -1 0.0533 -3.4337
-6 -14 -12 1.1475 2.9193
-6 -14 -10 0.5930 1.0494
-6 -14 -8 -1.7195 2.8582
-6 -14 -6 -0.2445 2.4755
-6 -14 -4 0.2961 -0.4743
-6 -14 -2 2.3239 2.8685
-6 -13 -13 -2.2054 -1.3483
-6 -13 -11 -1.0085 -1.4936
-6 -13 -9 -0.3749 -2.9732
-6 -13 -7 -0.5374 -4.0543
-6 -13 -5 -1.4089 -1.2794
-6 -13 -3 -1.2790 1.5978
-6 -13 -1 -0.4514 -4.0821
-6 -12 -14 -1.0479 -0.2510
-6 -12 -12 1.7344 -0.1720
-6 -12 -10 1.5638 0.7026
-6 -12 -8 -1.9747 2.4108
-6 -12 -6 1.2802 4.1052
-6 -12 -4 2.3307 -1.6307
-6 -12 -2 -0.9987 0.8739
-6 -11 -15 1.6932 0.4405
-6 -11 -13 -1.0853 -1.0875
-6 -11 -11 0.7921 1.6244
-6 -11 -9 0.4025 -4.3506
-6 -11 -7 1.5168 -2.3933
-6 -11 -5 -1.9610 -1.2945
-6 -11 -3 -1.7585 0.6639
-6 -11 -1 4.0564 -3.7854
-6 -10 -16 -0.7852 -0.8146
-6 -10 -14 0.5070 2.8084
-6 -10 -12 0.9740 -1.3236
-6 -10 -10 -1.3116 6.5083
-6 -10 -8 0.7722 2.7727
-6 -10 -6 1.3063 1.3933
-6 -10 -4 1.1645 0.2816
-6 -10 -2 0.0645 1.1798
-6 -9 -17 0.6753 0.2489
-6 -9 -15 -1.1177 0.5836
-6 -9 -13 -3.1027 -4.9754
-6 -9 -11 1.2543 -0.5310
-6 -9 -9 -0.6923 -5.9062
-6 -9 -7 -1.6739 0.5698
-6 -9 -5 -0.4691 -1.1868
-6 -9 -3 1.9713 1.6752
-6 -9 -1 -1.8828 -1.0282
-6 -8 -18 -0.3171 0.3495
-6 -8 -16 -0.7836 -4.0077
-6 -8 -14 1.5268 4.1262
-6 -8 -12 0.3358 1.1729
-6 -8 -10 -1.5719 1.8577
-6 -8 -8 -0.5197 -2.2901
-6 -8 -6 2.1667 0.2586
-6 -8 -4 -4.6710 -1.5409
-6 -8 -2 0.7447 -1.3117
-6 -7 -17 0.3644 1.9918
-6 -7 -15 -0.5059 1.0175
-6 -7 -13 1.3676 -3.7392
-6 -7 -11 5.0604 2.6018
-6 -7 -9 -1.8637 1.1216
-6 -7 -7 -2.8894 1.5890
-6 -7 -5 5.8592 0.3114
-6 -7 -3 4.7919 6.0252
-6 -7 -1 -8.2284 -6.7837
-6 -6 -18 -0.0326 2.5597
-6 -6 -16 0.0815 -2.0671
-6 -6 -14 -1.2704 4.9095
-6 -6 -12 -2.3353 -0.7074
-6 -6 -10 -0.5219 0.1317
-6 -6 -8 2.5234 -3.0301
-6 -6 -6 1.9820 5.7241
-6 -6 -4 -11.9500 -5.0810
-6 -6 -2 0.7440 0.5579
-6 -5 -19 0.8004 -0.3462
-6 -5 -17 0.7405 -0.6111
-6 -5 -15 0.6230 -2.2433
-6 -5 -13 0.1535 -4.0938
-6 -5 -11 1.3309 0.6400
-6 -5 -9 -3.5042 2.0704
-6 -5 -7 -2.4873 -1.8577
-6 -5 -5 6.0583 -3.6711
-6 -5 -3 5.9023 3.8227
-6 -5 -1 -4.2410 -2.3528
-6 -4 -18 -0.0722 0.2557
-6 -4 -16 -0.7018 -3.5534
-6 -4 -14 0.3170 2.3141
-6 -4 -12 1.0555 -2.6443
-6 -4 -10 1.0331 -1.3428
-6 -4 -8 0.5692 -8.0336
-6 -4 -6 -1.2819 3.0681
-6 -4 -4 -4.0202 -4.5354
-6 -4 -2 -1.6887 2.0780
-6 -3 -19 -0.5703 1.6331
-6 -3 -17 -1.3623 2.5365
-6 -3 -15 -1.3027 2.9789
-6 -3 -13 0.4907 1.6689
-6 -3 -11 -1.5869 3.1673
-6 -3 -9 0.1771 3.4242
-6 -3 -7 2.3786 4.1173
-6 -3 -5 1.0099 6.0245
-6 -3 -3 -2.9277 -0.6316
-6 -3 -1 1.2265 -4.7281
-6 -2 -20 -0.8539 -0.8727
-6 -2 -18 0.3872 -1.2011
-6 -2 -16 0.5024 0.6699
-6 -2 -14 0.4114 2.9879
-6 -2 -12 -0.2088 1.9566
-6 -2 -10 -0.3308 6.7267
-6 -2 -8 -1.4441 -1.4815
-6 -2 -6 -1.3606 1.2113
-6 -2 -4 10.6805 -0.5317
-6 -2 -2 2.3711 5.5424
-6 -1 -19 1.7159 -0.3541
-6 -1 -17 0.1980 -2.2333
-6 -1 -15 -0.1456 -5.7157
-6 -1 -13 2.0352 -5.4792
-6 -1 -11 -5.4987 -10.0010
-6 -1 -9 5.4707 -5.3271
-6 -1 -7 4.4337 -3.7939
-6 -1 -5 -10.8140 -4.7041
-6 -1 -3 -15.3636 -4.6623
-6 -1 -1 16.7969 -2.1340
-5 -17 -6 -0.1414 -2.1353
-5 -17 -4 -0.2423 -1.6953
-5 -17 -2 0.0230 -1.0081
-5 -16 -9 -1.7223 0.8692
-5 -16 -7 0.1430 2.2352
-5 -16 -5 0.3301 3.9682
-5 -16 -3 -0.8923 0.2779
-5 -16 -1 0.5928 -0.5870
-5 -15 -10 -0.7123 -0.7860
-5 -15 -8 0.5418 -1.0485
-5 -15 -6 0.2194 -2.3604
-5 -15 -4 -0.5449 0.5992
-5 -15 -2 0.8182 3.8942
-5 -14 -13 -0.3257 -1.2598
-5 -14 -11 0.8282 -0.0638
-5 -14 -9 0.7613 -0.0260
-5 -14 -7 0.8916 -2.3180
-5 -14 -5 0.5420 -0.7971
-5 -14 -3 -1.3945 -3.2176
-5 -14 -1 0.3618 -4.4425
-5 -13 -14 1.0958 -0.5455
-5 -13 -12 1.3503 0.7148
-5 -13 -10 -0.4926 -0.6829
-5 -13 -8 -1.4208 1.1629
-5 -13 -6 0.5640 4.0965
-5 -13 -4 0.1927 -0.4294
-5 -13 -2 0.1239 0.5101
-5 -12 -15 1.0261 -0.8468
-5 -12 -13 -1.5104 1.5595
-5 -12 -11 -0.3887 1.4815
-5 -12 -9 -1.3011 1.6087
-5 -12 -7 -0.5628 -1.7266
-5 -12 -5 -0.5358 0.1007
-5 -12 -3 0.1314 2.7538
-5 -12 -1 0.1503 0.3033
-5 -11 -16 -0.2475 4.5341
-5 -11 -14 -0.4599 -2.6811
-5 -11 -12 1.0367 0.6044
-5 -11 -10 -0.8144 -2.3497
-5 -11 -8 1.5702 -2.1609
-5 -11 -6 0.6282 -0.7936
-5 -11 -4 -2.2490 -3.8739
-5 -11 -2 -0.3396 1.9394
-5 -10 -17 -0.5434 -3.7338
-5 -10 -15 0.0534 -0.8256
-5 -10 -13 -0.4205 -0.1162
-5 -10 -11 0.1292 0.9981
-5 -10 -9 2.1939 4.1770
-5 -10 -7 0.2532 0.5621
-5 -10 -5 3.1730 4.2296
-5 -10 -3 -0.1465 -2.0201
-5 -10 -1 1.9340 -6.6922
-5 -9 -18 0.4333 1.0450
-5 -9 -16 -0.6952 2.4300
-5 -9 -14 0.4348 -3.9500
-5 -9 -12 0.3154 5.2567
-5 -9 -10 -1.1459 -5.9684
-5 -9 -8 -1.0934 0.3380
-5 -9 -6 -2.8422 -0.8809
-5 -9 -4 0.4572 3.0045
-5 -9 -2 -1.5279 4.0016
-5 -8 -17 -0.5228 -2.0867
-5 -8 -15 0.1024 3.7306
-5 -8 -13 0.1142 -5.1664
-5 -8 -11 0.0551 1.7056
-5 -8 -9 0.2028 -1.2955
-5 -8 -7 -0.4992 -2.1747
-5 -8 -5 0.9149 -0.1244
-5 -8 -3 2.1186 -0.5725
-5 -8 -1 -1.1438 -2.5195
-5 -7 -18 -0.8710 -0.0380
-5 -7 -16 -0.1207 0.3474
-5 -7 -14 1.4676 -0.1372
-5 -7 -12 -1.4722 3.8580
-5 -7 -10 -0.7041 -3.3672
-5 -7 -8 2.7894 3.7035
-5 -7 -6 -0.4681 -5.2886
-5 -7 -4 -1.6345 -0.8645
-5 -7 -2 -1.1015 -4.9412
-5 -6 -19 1.8780 2.1516
-5 -6 -17 1.8729 -0.1523
-5 -6 -15 0.0878 0.3723
-5 -6 -13 -0.5480 -2.8944
-5 -6 -11 2.2344 9.8732
-5 -6 -9 -3.9941 -3.3806
-5 -6 -7 0.2448 7.5860
-5 -6 -5 -0.5829 0.1500
-5 -6 -3 -0.5835 10.5052
-5 -6 -1 0.7667 -1.5486
-5 -5 -20 -0.8250 -1.2004
-5 -5 -18 -1.5005 -3.1659
-5 -5 -16 1.1053 0.6196
-5 -5 -14 -0.5098 -1.4552
-5 -5 -12 -0.4100 -2.4034
-5 -5 -10 1.2668 -6.0047
-5 -5 -8 2.6423 0.6944
-5 -5 -6 -0.2485 -0.6385
-5 -5 -4 -1.2226 -3.0409
-5 -5 -2 3.2786 -1.4750
-5 -4 -19 -0.1460 0.4131
-5 -4 -17 -1.1354 -0.7231
-5 -4 -15 -1.7773 -1.4486
-5 -4 -13 -0.2556 1.4535
-5 -4 -11 1.4656 3.4274
-5 -4 -9 -1.1491 -10.6159
-5 -4 -7 0.7333 2.1008
-5 -4 -5 2.2001 -5.4004
-5 -4 -3 2.6098 -1.3987
-5 -4 -1 -3.8574 -13.9024
-5 -3 -20 -0.4649 1.3887
-5 -3 -18 0.6541 0.7805
-5 -3 -16 0.4491 3.2553
-5 -3 -14 1.2348 -1.4206
-5 -3 -12 -1.8114 2.1273
-5 -3 -10 -0.3334 0.9719
-5 -3 -8 -1.8361 5.2111
-5 -3 -6 -3.8785 8.0440
-5 -3 -4 0.3054 1.0145
-5 -3 -2 1.7332 9.2484
-5 -2 -19 0.2263 2.0689
-5 -2 -17 1.7303 -0.0486
-5 -2 -15 -1.2713 2.0289
-5 -2 -13 0.7761 5.5007
-5 -2 -11 0.3867 7.0122
-5 -2 -9 0.7946 0.0499
-5 -2 -7 3.1391 1.6470
-5 -2 -5 0.4667 3.3841
-5 -2 -3 -6.4173 5.1265
-5 -2 -1 -0.9885 -7.5442
-5 -1 -20 -0.1616 -2.6852
-5 -1 -18 -1.9649 -3.9626
-5 -1 -16 -0.3858 -3.6308
-5 -1 -14 2.0574 -7.5496
-5 -1 -12 -0.4466 -7.4622
-5 -1 -10 -1.9760 -9.9312
-5 -1 -8 2.5964 -8.0936
-5 -1 -6 -5.1793 -5.3462
-5 -1 -4 5.2789 -11.3065
-5 -1 -2 1.1990 -4.6161
-4 -18 -2 1.8149 0.7466
-4 -17 -7 -0.3412 0.1001
-4 -17 -5 -0.0767 1.1782
-4 -17 -3 -0.7876 -0.0124
-4 -17 -1 -0.3440 -2.0963
-4 -16 -10 0.7163 -0.4161
-4 -16 -8 0.9348 2.0591
-4 -16 -6 -0.3045 -1.8537
-4 -16 -4 -1.9901 -1.2261
-4 -16 -2 0.4483 1.3044
-4 -15 -11 -3.9612 -2.0478
-4 -15 -9 -1.7953 -1.5233
-4 -15 -7 -0.0588 -1.1304
-4 -15 -5 -0.0072 1.9810
-4 -15 -3 3.5485 -0.1686
-4 -15 -1 -3.4298 -3.4035
-4 -14 -12 2.6307 5.1546
-4 -14 -10 1.5846 0.8934
-4 -14 -8 2.8348 1.7759
-4 -14 -6 -1.0577 -0.7019
-4 -14 -4 -3.3408 -0.2753
-4 -14 -2 -1.2715 3.2061
-4 -13 -15 1.7276 0.3557
-4 -13 -13 -0.1662 -3.2584
-4 -13 -11 -1.3335 -4.9116
-4 -13 -9 -3.0568 0.5290
-4 -13 -7 1.8176 0.5380
-4 -13 -5 1.3781 0.0969
-4 -13 -3 3.9604 -0.1945
-4 -13 -1 -2.1256 -4.6432
-4 -12 -16 -1.7022 -3.5906
-4 -12 -14 0.1682 -0.7933
-4 -12 -12 -0.3342 3.8031
-4 -12 -10 1.7130 -0.7640
-4 -12 -8 3.5672 1.2953
-4 -12 -6 -1.4530 -1.6700
-4 -12 -4 -4.7430 -1.6326
-4 -12 -2 0.9593 2.0169
-4 -11 -17 -0.9143 2.3861
-4 -11 -15 1.0563 3.0601
-4 -11 -13 1.1118 -1.0672
-4 -11 -11 -1.5888 0.3654
-4 -11 -9 -4.7485 -0.5147
-4 -11 -7 0.8974 -0.3955
-4 -11 -5 5.6212 -0.2073
-4 -11 -3 2.8300 5.0848
-4 -11 -1 -6.9891 -1.7176
-4 -10 -18 0.4473 -1.0029
-4 -10 -16 1.4019 -3.6521
-4 -10 -14 -1.4298 3.2186
-4 -10 -12 0.0208 1.2856
-4 -10 -10 1.7963 -1.9970
-4 -10 -8 -0.3936 1.8186
-4 -10 -6 -6.4493 -0.2782
-4 -10 -4 -3.7350 -4.5325
-4 -10 -2 0.6127 -0.3883
-4 -9 -17 -2.4916 3.0708
-4 -9 -15 1.3008 0.5413
-4 -9 -13 1.7818 -2.4706
-4 -9 -11 -0.5297 4.8244
-4 -9 -9 -0.7451 1.3248
-4 -9 -7 2.7567 4.2238
-4 -9 -5 1.2770 1.8624
-4 -9 -3 -0.7623 0.4777
-4 -9 -1 2.9398 -6.1596
-4 -8 -18 0.3439 0.9194
-4 -8 -16 -0.5884 -5.0876
-4 -8 -14 -1.4315 1.0550
-4 -8 -12 0.5321 -10.6190
-4 -8 -10 0.2657 -5.0063
-4 -8 -8 3.1134 -6.4576
-4 -8 -6 -0.6764 -2.3248
-4 -8 -4 5.4471 -0.7143
-4 -8 -2 -1.2628 6.2747
-4 -7 -19 0.2243 -1.4482
-4 -7 -17 0.4009 1.0683
-4 -7 -15 2.7588 3.1712
-4 -7 -13 -2.0705 4.3167
-4 -7 -11 -3.6428 8.9470
-4 -7 -9 2.2120 2.5738
-4 -7 -7 7.7296 3.8008
-4 -7 -5 -10.7020 -0.8406
-4 -7 -3 -7.1940 2.9574
-4 -7 -1 7.5495 0.5446
-4 -6 -20 -0.2263 -0.3070
-4 -6 -18 0.9666 1.1643
-4 -6 -16 -2.3817 -2.8480
-4 -6 -14 2.6527 -0.2950
-4 -6 -12 2.8195 -4.0807
-4 -6 -10 -2.6364 0.4835
-4 -6 -8 -8.0368 -3.2336
-4 -6 -6 -2.0139 0.2209
-4 -6 -4 13.3218 -8.9852
-4 -6 -2 4.2042 -6.3148
-4 -5 -19 -0.1762 -0.0533
-4 -5 -17 -0.7128 1.6783
-4 -5 -15 -0.9307 1.8275
-4 -5 -13 -1.1309 0.1288
-4 -5 -11 -3.7321 1.3695
-4 -5 -9 6.1351 3.9684
-4 -5 -7 6.1265 2.1572
-4 -5 -5 -7.1672 3.8801
-4 -5 -3 -9.8461 9.5534
-4 -5 -1 5.1640 -5.0058
-4 -4 -20 -1.7991 -2.5214
-4 -4 -18 0.3601 -1.9067
-4 -4 -16 0.1861 -0.9265
-4 -4 -14 2.7498 -0.6531
-4 -4 -12 0.4121 0.1056
-4 -4 -10 -1.3494 -7.1903
-4 -4 -8 -1.8072 -3.4142
-4 -4 -6 2.6335 4.6504
-4 -4 -4 2.8237 -2.4256
-4 -4 -2 6.9409 10.7624
-4 -3 -21 0.9083 -0.5218
-4 -3 -19 0.3940 4.0696
-4 -3 -17 1.2412 0.8604
-4 -3 -15 -1.1487 -1.5495
-4 -3 -13 -0.5248 -1.1213
-4 -3 -11 2.5093 0.6324
-4 -3 -9 0.0424 4.2353
-4 -3 -7 -6.5378 -3.2962
-4 -3 -5 0.4833 -6.4709
-4 -3 -3 2.7240 -7.1212
-4 -3 -1 -0.1410 -13.8951
-4 -2 -20 0.9083 -1.9422
-4 -2 -18 0.0540 -1.3115
-4 -2 -16 0.0510 1.2943
-4 -2 -14 -0.5962 0.8991
-4 -2 -12 -3.2719 4.8147
-4 -2 -10 1.3164 -0.8773
-4 -2 -8 11.8329 1.6718
-4 -2 -6 -0.2189 -2.1277
-4 -2 -4 -14.2608 -6.1523
-4 -2 -2 -7.0095 13.5885
-4 -1 -21 0.4686 -0.3769
-4 -1 -19 -1.6112 2.1604
-4 -1 -17 1.7546 -1.2090
-4 -1 -15 -1.3595 -0.6851
-4 -1 -13 1.4936 -2.6556
-4 -1 -11 2.9543 -2.0955
-4 -1 -9 -6.1521 -2.9183
-4 -1 -7 -15.9518 4.4967
-4 -1 -5 16.5482 11.8049
-4 -1 -3 33.6736 2.4006
-4 -1 -1 -28.6001 -7.7074
-3 -18 -5 -0.8575 1.9508
-3 -18 -3 -0.5968 -0.0568
-3 -18 -1 0.3440 0.4590
-3 -17 -8 -2.9656 -3.7434
-3 -17 -6 -1.0255 0.7968
-3 -17 -4 1.0069 -2.2537
-3 -17 -2 -0.3040 1.7334
-3 -16 -11 0.4252 -2.4919
-3 -16 -9 4.2658 0.0786
-3 -16 -7 1.6682 1.4354
-3 -16 -5 1.7464 -0.9932
-3 -16 -3 -0.9637 -1.5220
-3 -16 -1 -2.4382 -2.3445
-3 -15 -12 -0.8541 -2.8868
-3 -15 -10 0.3070 3.1164
-3 -15 -8 -1.9071 -1.8817
-3 -15 -6 -2.4674 1.6011
-3 -15 -4 0.4553 -0.2007
-3 -15 -2 1.9566 3.1144
-3 -14 -13 -2.5863 6.5368
-3 -14 -11 -1.9478 0.7690
-3 -14 -9 -1.0251 -0.3237
-3 -14 -7 -0.6145 -1.2954
-3 -14 -5 1.4242 1.5080
-3 -14 -3 0.4481 -2.7071
-3 -14 -1 -2.0495 -1.6724
-3 -13 -14 2.2031 1.8290
-3 -13 -12 3.1925 -3.4480
-3 -13 -10 -0.0919 0.7547
-3 -13 -8 1.8308 2.4800
-3 -13 -6 -1.1055 -1.5621
-3 -13 -4 -0.0291 0.0640
-3 -13 -2 0.5404 4.8962
-3 -12 -15 -1.3445 -6.2181
-3 -12 -13 -3.8955 -2.4736
-3 -12 -11 2.3200 0.3137
-3 -12 -9 2.0812 1.4021
-3 -12 -7 -0.0862 -0.0846
-3 -12 -5 -1.4422 4.5293
-3 -12 -3 -2.6526 -1.5533
-3 -12 -1 -1.3744 -2.8512
-3 -11 -16 -0.0383 3.1848
-3 -11 -14 0.0512 4.1489
-3 -11 -12 -0.2655 -1.8703
-3 -11 -10 -2.4681 -8.4137
-3 -11 -8 1.2678 0.7626
-3 -11 -6 0.8007 -4.7590
-3 -11 -4 4.0402 -4.2452
-3 -11 -2 1.9151 -1.3726
-3 -10 -17 0.8137 0.1625
-3 -10 -15 2.5114 -0.2345
-3 -10 -13 0.8531 3.1200
-3 -10 -11 0.8779 6.8273
-3 -10 -9 -4.8000 2.0086
-3 -10 -7 0.4679 -2.4018
-3 -10 -5 0.6101 6.6176
-3 -10 -3 1.3569 3.5686
-3 -10 -1 -0.3573 3.2567
-3 -9 -18 1.0573 -0.0552
-3 -9 -16 0.5581 -0.1085
-3 -9 -14 -1.5936 -1.1368
-3 -9 -12 0.5589 -1.8246
-3 -9 -10 1.8217 -0.4867
-3 -9 -8 -0.4866 7.3611
-3 -9 -6 -6.5426 -1.5936
-3 -9 -4 -2.7212 -8.0221
-3 -9 -2 -0.1012 2.2654
-3 -8 -19 -0.4187 -2.6593
-3 -8 -17 -0.4920 -0.0683
-3 -8 -15 -2.0404 -0.0107
-3 -8 -13 1.3622 1.7332
-3 -8 -11 -0.8019 -2.9409
-3 -8 -9 1.4383 -4.2157
-3 -8 -7 6.1651 0.4043
-3 -8 -5 1.6569 0.9633
-3 -8 -3 -7.6589 -0.3253
-3 -8 -1 -2.3859 -3.3405
-3 -7 -20 -0.1686 1.4681
-3 -7 -18 -0.3470 0.6602
-3 -7 -16 0.8244 -1.7489
-3 -7 -14 -1.9518 -5.7327
-3 -7 -12 -0.1480 1.9939
-3 -7 -10 1.0618 -3.0565
-3 -7 -8 -0.1209 0.6382
-3 -7 -6 -0.9908 -1.8152
-3 -7 -4 9.2822 1.5647
-3 -7 -2 7.4241 -1.3255
-3 -6 -19 -0.7827 -1.8333
-3 -6 -17 0.3038 2.1166
-3 -6 -15 -1.4865 6.1958
-3 -6 -13 3.7069 1.9788
-3 -6 -11 -6.3632 -2.5525
-3 -6 -9 1.3022 2.6521
-3 -6 -7 -2.3519 5.3953
-3 -6 -5 5.3569 -5.9313
-3 -6 -3 -3.7146 8.1910
-3 -6 -1 -1.7573 8.2405
-3 -5 -20 2.0971 2.4936
-3 -5 -18 0.0169 0.0332
-3 -5 -16 1.2418 -1.0682
-3 -5 -14 0.5392 -0.8253
-3 -5 -12 4.6839 3.9697
-3 -5 -10 -1.1664 2.3877
-3 -5 -8 -1.8801 -0.7383
-3 -5 -6 -13.6324 5.5607
-3 -5 -4 -11.0728 2.9593
-3 -5 -2 1.1200 -18.8848
-3 -4 -21 -0.7807 -2.4151
-3 -4 -19 -1.6065 -0.7785
-3 -4 -17 1.2650 -0.9680
-3 -4 -15 -1.9798 1.7546
-3 -4 -13 -1.1277 -5.4375
-3 -4 -11 -4.5064 -6.4357
-3 -4 -9 8.3703 2.7995
-3 -4 -7 3.6159 2.9700
-3 -4 -5 21.2656 -29.8807
-3 -4 -3 0.9464 22.1033
-3 -4 -1 -2.3041 16.8145
-3 -3 -20 1.4916 0.6187
-3 -3 -18 -2.9203 -1.1526
-3 -3 -16 0.3190 -1.9588
-3 -3 -14 -1.4625 0.2847
-3 -3 -12 5.2937 3.4360
-3 -3 -10 -4.8779 1.1748
-3 -3 -8 6.3752 -11.6788
-3 -3 -6 -7.2076 9.3487
-3 -3 -4 -12.6703 -0.8951
-3 -3 -2 1.7504 -9.0519
-3 -2 -21 1.7740 0.1698
-3 -2 -19 0.9387 -0.7529
-3 -2 -17 2.7670 2.0135
-3 -2 -15 1.6051 3.9066
-3 -2 -13 0.4331 -1.3074
-3 -2 -11 -2.6219 -5.3274
-3 -2 -9 -0.3852 13.5618
-3 -2 -7 -13.7263 13.3116
-3 -2 -5 17.1123 -18.1855
-3 -2 -3 6.2357 5.7735
-3 -2 -1 2.7079 -6.6176
-3 -1 -20 -2.0206 0.5284
-3 -1 -18 -0.5850 0.9539
-3 -1 -16 -0.1721 -0.5989
-3 -1 -14 -5.3102 -1.8443
-3 -1 -12 3.1941 2.0896
-3 -1 -10 -4.6933 -4.7651
-3 -1 -8 5.9730 -7.0705
-3 -1 -6 -6.1236 4.5810
-3 -1 -4 -14.3266 3.6526
-3 -1 -2 -4.2711 14.7612
-2 -18 -6 -1.0389 -3.0224
-2 -18 -4 -0.0601 0.9607
-2 -18 -2 -3.1228 0.4059
-2 -17 -9 -2.1024 0.4853
-2 -17 -7 0.2598 1.8416
-2 -17 -5 1.1336 0.7162
-2 -17 -3 0.0536 -3.5801
-2 -17 -1 0.2202 -0.6613
-2 -16 -10 1.9248 0.3333
-2 -16 -8 0.3926 0.3053
-2 -16 -6 -0.3932 -2.1225
-2 -16 -4 1.1420 2.6256
-2 -16 -2 0.8482 3.0992
-2 -15 -13 1.9312 -4.4886
-2 -15 -11 0.0007 -3.5320
-2 -15 -9 2.6968 -3.1268
-2 -15 -7 0.0742 0.0897
-2 -15 -5 1.1942 2.5152
-2 -15 -3 -2.6383 -1.8176
-2 -15 -1 2.0346 0.3313
-2 -14 -14 -3.2237 3.4148
-2 -14 -12 0.0207 5.8121
-2 -14 -10 -1.3502 6.4442
-2 -14 -8 -6.8520 3.1744
-2 -14 -6 0.4927 -1.8411
-2 -14 -4 4.0894 -3.2642
-2 -14 -2 -1.3085 -1.4121
-2 -13 -15 -0.2318 1.3148
-2 -13 -13 1.5749 -1.6714
-2 -13 -11 -2.3944 -3.1226
-2 -13 -9 6.2428 -5.3992
-2 -13 -7 -1.0741 -2.1872
-2 -13 -5 -4.2360 2.2618
-2 -13 -3 -3.9682 1.4695
-2 -13 -1 4.2829 2.2615
-2 -12 -16 3.1537 0.0556
-2 -12 -14 -2.5676 -3.7167
-2 -12 -12 4.0880 -1.9512
-2 -12 -10 -1.6282 3.0166
-2 -12 -8 -4.2402 1.1095
-2 -12 -6 3.7162 1.3580
-2 -12 -4 8.0778 0.4273
-2 -12 -2 -0.5589 -2.2890
-2 -11 -17 -1.3153 0.1339
-2 -11 -15 -1.4191 0.9073
-2 -11 -13 -2.9310 2.1589
-2 -11 -11 0.0700 0.5542
-2 -11 -9 9.4946 -0.4524
-2 -11 -7 -0.6593 2.0473
-2 -11 -5 -6.2199 -0.1182
-2 -11 -3 -3.1585 0.4077
-2 -11 -1 7.4373 1.2358
-2 -10 -18 1.7845 -0.0183
-2 -10 -16 0.1840 0.5948
-2 -10 -14 2.0778 1.8558
-2 -10 -12 0.4471 -1.5403
-2 -10 -10 -7.6311 0.4237
-2 -10 -8 -1.1823 -3.5643
-2 -10 -6 1.1140 -1.5358
-2 -10 -4 3.3544 -0.6440
-2 -10 -2 -2.9042 -4.3081
-2 -9 -19 0.8682 -0.8116
-2 -9 -17 1.2251 0.8216
-2 -9 -15 -0.8958 -3.8094
-2 -9 -13 -1.0362 -0.9617
-2 -9 -11 5.8829 1.4048
-2 -9 -9 3.0121 -0.7589
-2 -9 -7 -3.2005 0.7983
-2 -9 -5 1.9223 0.3764
-2 -9 -3 0.2412 6.9103
-2 -9 -1 -5.6903 4.3491
-2 -8 -18 -0.6949 -0.5813
-2 -8 -16 -0.0439 -1.2114
-2 -8 -14 2.3128 2.7386
-2 -8 -12 -5.6585 -0.8599
-2 -8 -10 -3.9202 3.0772
-2 -8 -8 1.3093 2.0561
-2 -8 -6 -1.6000 0.6012
-2 -8 -4 -0.6100 -5.3125
-2 -8 -2 0.2715 -5.1229
-2 -7 -19 -0.1612 -0.1289
-2 -7 -17 1.8859 3.2088
-2 -7 -15 -3.7625 0.9114
-2 -7 -13 2.5586 1.9873
-2 -7 -11 5.7728 -1.5039
-2 -7 -9 -1.2591 -3.1654
-2 -7 -7 -6.1146 0.5849
-2 -7 -5 7.9308 2.1255
-2 -7 -3 16.4869 -0.5889
-2 -7 -1 -11.0627 -4.9780
-2 -6 -20 1.0659 0.8422
-2 -6 -18 -1.9131 0.8905
-2 -6 -16 -0.9669 -4.2585
-2 -6 -14 0.1679 0.0014
-2 -6 -12 -5.0698 -3.8672
-2 -6 -10 8.2271 2.9867
-2 -6 -8 -4.2565 -4.7640
-2 -6 -6 -3.5246 -1.1301
-2 -6 -4 -18.8386 0.3799
-2 -6 -2 -13.5066 9.2413
-2 -5 -21 0.0114 -1.2429
-2 -5 -19 0.0280 -1.5903
-2 -5 -17 2.6919 1.2419
-2 -5 -15 0.7915 0.0334
-2 -5 -13 0.5535 1.9154
-2 -5 -11 -2.6739 -1.7170
-2 -5 -9 -1.2558 4.9105
-2 -5 -7 14.4411 9.7988
-2 -5 -5 4.7392 6.5013
-2 -5 -3 19.2435 3.1236
-2 -5 -1 -11.5872 -2.6574
-2 -4 -20 1.5773 1.5010
-2 -4 -18 1.3635 -0.3479
-2 -4 -16 -1.5165 -2.8068
-2 -4 -14 0.7745 1.7138
-2 -4 -12 0.3370 -1.3553
-2 -4 -10 15.8986 2.3577
-2 -4 -8 -23.8259 -18.0358
-2 -4 -6 -3.2999 -15.1554
-2 -4 -4 -3.6194 -14.0981
-2 -4 -2 8.3084 -7.0275
-2 -3 -21 -2.0420 0.8810
-2 -3 -19 -2.8068 -1.3429
-2 -3 -17 -1.4549 2.9995
-2 -3 -15 -2.4354 1.1744
-2 -3 -13 0.1794 0.5758
-2 -3 -11 -16.1674 -2.8347
-2 -3 -9 10.2216 9.1409
-2 -3 -7 17.6618 12.4733
-2 -3 -5 1.8679 1.8136
-2 -3 -3 -17.6666 -1.3762
-2 -3 -1 -4.3519 -7.4727
-2 -2 -20 0.8230 1.6840
-2 -2 -18 2.6411 0.8970
-2 -2 -16 -0.1369 -1.5263
-2 -2 -14 5.8652 0.7734
-2 -2 -12 4.2726 -0.7255
-2 -2 -10 3.2416 2.8725
-2 -2 -8 -35.1931 -1.3491
-2 -2 -6 4.3218 21.1778
-2 -2 -4 7.0294 36.9710
-2 -2 -2 13.7599 26.4031
-2 -1 -21 0.9771 -0.8286
-2 -1 -19 -1.1211 -3.9066
-2 -1 -17 0.3667 -0.5859
-2 -1 -15 -1.2792 -0.9011
-2 -1 -13 -1.1373 0.0907
-2 -1 -11 -2.4952 -2.8106
-2 -1 -9 16.0728 -3.2473
-2 -1 -7 12.9467 -19.2521
-2 -1 -5 7.1234 -40.9539
-2 -1 -3 -51.6552 -37.5677
-2 -1 -1 93.4411 -18.1692
-1 -18 -5 -0.2684 -2.1185
-1 -18 -3 -0.5158 0.9210
-1 -18 -1 -0.0218 -2.4061
-1 -17 -8 0.4978 3.2563
-1 -17 -6 0.3647 -0.7327
-1 -17 -4 0.2536 0.9971
-1 -17 -2 0.5305 0.6405
-1 -16 -11 0.6163 2.1849
-1 -16 -9 -1.5885 -1.2138
-1 -16 -7 1.1202 -1.6180
-1 -16 -5 -1.6082 1.1479
-1 -16 -3 0.5751 2.2867
-1 -16 -1 0.0012 -2.9313
-1 -15 -12 -0.1111 -4.5048
-1 -15 -10 0.6394 -2.0644
-1 -15 -8 0.2408 1.0553
-1 -15 -6 0.5929 0.3340
-1 -15 -4 0.2221 -1.9860
-1 -15 -2 -0.4479 2.4444
-1 -14 -13 0.5179 2.2772
-1 -14 -11 0.5090 3.3542
-1 -14 -9 -1.3754 -2.6988
-1 -14 -7 0.9631 1.8274
-1 -14 -5 -1.1936 -1.3068
-1 -14 -3 0.1184 1.1679
-1 -14 -1 -0.9496 -4.9855
-1 -13 -14 0.4267 -2.3949
-1 -13 -12 -0.1511 -4.8687
-1 -13 -10 0.6767 4.5936
-1 -13 -8 0.5053 0.1175
-1 -13 -6 0.6493 0.4484
-1 -13 -4 -0.1925 -1.9934
-1 -13 -2 -0.5304 0.0605
-1 -12 -17 -2.0515 -0.1104
-1 -12 -15 1.0230 0.3690
-1 -12 -13 -0.5813 7.8195
-1 -12 -11 -0.5676 0.9598
-1 -12 -9 -1.6984 -4.4016
-1 -12 -7 -0.8980 -0.8508
-1 -12 -5 0.0391 -0.8800
-1 -12 -3 2.6565 3.8603
-1 -12 -1 0.5756 -1.9332
-1 -11 -16 -1.1139 0.8171
-1 -11 -14 -1.3115 -4.6397
-1 -11 -12 0.9854 -3.2103
-1 -11 -10 -0.4419 3.0937
-1 -11 -8 -0.2673 -0.2789
-1 -11 -6 0.5452 1.9645
-1 -11 -4 -2.6838 -2.5010
-1 -11 -2 -1.4423 0.8179
-1 -10 -17 -1.1130 -0.7074
-1 -10 -15 1.8778 0.3836
-1 -10 -13 -1.0033 0.3862
-1 -10 -11 1.0129 -2.3385
-1 -10 -9 2.9745 3.3139
-1 -10 -7 0.8561 -0.0675
-1 -10 -5 -0.0988 -3.1533
-1 -10 -3 1.4650 3.4250
-1 -10 -1 -1.2389 -8.2271
-1 -9 -18 -0.7769 -0.8741
-1 -9 -16 0.6593 -0.2494
-1 -9 -14 0.6136 -3.6049
-1 -9 -12 0.3702 5.1702
-1 -9 -10 -0.5317 -7.3105
-1 -9 -8 -0.7924 0.1759
-1 -9 -6 1.7535 4.7314
-1 -9 -4 -1.3801 6.2152
-1 -9 -2 -0.1103 -0.7928
-1 -8 -19 1.4925 1.7181
-1 -8 -17 0.1257 1.1289
-1 -8 -15 -1.1382 3.9928
-1 -8 -13 -1.2326 -5.1068
-1 -8 -11 -1.5820 3.9400
-1 -8 -9 -2.9295 6.2539
-1 -8 -7 -1.3808 -7.7069
-1 -8 -5 0.0939 -0.2637
-1 -8 -3 3.2883 2.6388
-1 -8 -1 -0.1456 3.5008
-1 -7 -20 0.8529 3.1368
-1 -7 -18 -2.2259 -0.2840
-1 -7 -16 0.9220 -0.2526
-1 -7 -14 0.8253 4.1393
-1 -7 -12 1.0469 2.7591
-1 -7 -8 0.5560 -2.7197
-1 -7 -6 0.1546 -6.7252
-1 -7 -4 -1.2886 -6.1693
-1 -7 -2 1.3591 -15.6771
-1 -6 -19 -1.6983 -3.6927
-1 -6 -17 1.5490 -1.3448
-1 -6 -15 -0.2685 -1.7565
-1 -6 -13 -0.0014 -3.1255
-1 -6 -11 0.4455 2.8982
-1 -6 -9 -0.6551 0.8741
-1 -6 -7 0.0535 7.6648
-1 -6 -5 -2.4507 8.1613
-1 -6 -3 -3.6690 12.0427
-1 -6 -1 -4.3122 10.0534
-1 -5 -20 4.5550 3.7591
-1 -5 -18 2.1307 -0.1479
-1 -5 -16 0.1555 -0.8565
-1 -5 -14 -1.4464 -4.1181
-1 -5 -12 -0.3005 -3.5990
-1 -5 -10 -0.0438 -0.9562
-1 -5 -8 3.9410 -1.4167
-1 -5 -6 3.4557 -6.3144
-1 -5 -4 2.0571 10.2351
-1 -5 -2 -1.0120 -14.8831
-1 -4 -21 -2.6169 -0.5127
-1 -4 -19 -6.0020 2.3723
-1 -4 -17 -1.6707 3.3214
-1 -4 -15 -0.0227 0.8687
-1 -4 -13 0.6575 6.6561
-1 -4 -11 -0.5567 10.2157
-1 -4 -9 -5.0103 -9.3980
-1 -4 -7 -6.1282 -10.2843
-1 -4 -5 3.5089 -0.5971
-1 -4 -3 7.5737 -3.2869
-1 -4 -1 1.2411 -12.9868
-1 -3 -20 2.6110 0.1667
-1 -3 -18 3.6389 -6.3268
-1 -3 -16 0.7330 3.1769
-1 -3 -14 -1.2556 -2.7567
-1 -3 -12 1.1630 -9.3170
-1 -3 -10 0.3190 -4.1197
-1 -3 -8 6.2913 19.7251
-1 -3 -6 -6.2217 6.8203
-1 -3 -4 -8.2572 9.3171
-1 -3 -2 -4.8305 -27.3502
-1 -2 -21 0.3441 -1.8555
-1 -2 -19 -1.5543 5.8537
-1 -2 -17 -0.6570 -0.0975
-1 -2 -15 0.2617 -3.8689
-1 -2 -13 0.6474 3.8165
-1 -2 -11 1.0341 17.6227
-1 -2 -9 -1.6247 -14.3852
-1 -2 -7 3.4736 -10.4963
-1 -2 -5 8.2421 15.0826
-1 -2 -3 1.4550 51.3312
-1 -2 -1 -8.1527 11.8779
-1 -1 -22 -0.6484 -0.3771
-1 -1 -20 0.0459 -1.0564
-1 -1 -18 -0.4502 -5.0737
-1 -1 -16 0.1633 0.7392
-1 -1 -14 -0.8081 1.0958
-1 -1 -12 0.7628 -8.5168
-1 -1 -10 -1.6081 0.5288
-1 -1 -8 4.8271 -0.1834
-1 -1 -6 -8.5910 -15.3389
-1 -1 -4 1.1190 -30.6121
-1 -1 -2 3.8321 -54.8422
0 0 2 49.9099 -1.3348
0 0 4 -126.2998 -1.4073
0 0 6 -40.3318 -1.4066
0 0 8 -4.2314 -1.3488
0 0 10 10.6155 -1.3016
0 0 12 -12.4477 -1.2209
0 0 14 3.9803 -1.1616
0 0 16 0.1261 -1.0422
0 0 18 1.6027 -0.9763
0 0 20 -1.4806 -0.8802
0 1 3 75.7687 0.1325
0 1 5 68.8389 0.0683
0 1 7 -6.6870 0.0795
0 1 11 -0.2031 0.0770
0 1 13 3.7736 0.0630
0 1 15 -1.6352 0.0498
0 1 17 -1.0388 0.0502
0 1 19 1.9603 0.0590
0 1 21 -4.1304 0.1760
0 2 0 1.7754 0.2744
0 2 2 20.3758 0.2448
0 2 4 -71.1820 0.3968
0 2 6 -5.1275 0.3771
0 2 8 27.7883 0.3593
0 2 10 12.4971 0.3529
0 2 12 -7.2666 0.3305
0 2 14 -1.0249 0.3228
0 2 16 0.3706 0.2798
0 2 18 0.9288 0.2761
0 2 20 -0.1054 0.2366
0 3 1 -4.7179 0.1649
0 3 3 30.4224 0.0564
0 3 5 18.9286 0.0544
0 3 7 -16.7288 0.0391
0 3 9 -9.1896 0.0599
0 3 11 3.5055 0.0453
0 3 13 -0.1297 0.0464
0 3 15 1.5542 0.0308
0 3 17 -1.4409 0.0538
0 3 19 0.5392 0.0796
0 3 21 0.5756 -0.2101
0 4 0 -11.7239 -0.0392
0 4 2 -3.9167 -0.0511
0 4 6 1.9216 -0.1290
0 4 8 0.5855 -0.1050
0 4 10 -3.5037 -0.1051
0 4 12 2.0510 -0.1263
0 4 14 0.2679 -0.1151
0 4 16 -0.0834 -0.1101
0 4 18 0.8508 -0.0655
0 4 20 -0.3940 0.0210
0 5 1 12.3034 -0.0789
0 5 3 -5.6303 -0.0487
0 5 5 2.5614 -0.0258
0 5 7 4.2760 -0.0057
0 5 9 6.7701 -0.0155
0 5 11 -5.4850 -0.0311
0 5 13 -0.3239 -0.0279
0 5 15 -0.6109 -0.0258
0 5 17 -2.0879 -0.0008
0 5 19 -0.2371 0.0008
0 5 21 0.0338 -0.3840
0 6 0 -21.8929 0.0166
0 6 2 7.4682 0.0182
0 6 4 22.5853 -0.0034
0 6 6 1.0625 0.0299
0 6 10 -1.2345 0.0378
0 6 12 2.9186 0.0406
0 6 14 2.8522 0.0274
0 6 16 -0.1545 0.0654
0 6 18 1.7638 0.0656
0 6 20 -2.4815 -0.2061
0 7 1 22.0201 0.0326
0 7 3 -28.4467 0.0032
0 7 5 -17.2863 -0.0296
0 7 7 12.4197 -0.0274
0 7 11 -1.5042 -0.0254
0 7 13 -3.9215 -0.0281
0 7 15 2.9249 -0.0027
0 7 17 -0.7189 -0.0221
0 7 19 1.7273 0.0833
0 8 0 -29.8128 -0.0248
0 8 2 1.5221 -0.0269
0 8 4 13.6946 -0.0210
0 8 6 1.2465 -0.0287
0 8 8 -2.8210 -0.0483
0 8 10 0.5246 -0.0557
0 8 12 1.4036 -0.0482
0 8 14 0.4075 -0.0417
0 8 16 -1.7286 -0.0546
0 8 18 -1.0089 0.0300
0 8 20 0.7751 -0.3399
0 9 1 10.8145 -0.0130
0 9 3 -6.3291 -0.0000
0 9 5 -4.4583 0.0021
0 9 7 4.9961 0.0233
0 9 9 -0.7338 0.0156
0 9 11 -0.0570 0.0182
0 9 13 1.1291 0.0131
0 9 15 0.1730 0.0285
0 9 17 -0.0021 0.0257
0 9 19 0.3292 -0.1007
0 10 0 -0.3425 0.0253
0 10 2 0.3099 0.0371
0 10 4 -1.5484 0.0317
0 10 6 -0.5964 0.0334
0 10 8 1.6496 0.0586
0 10 10 4.6230 0.0514
0 10 12 -0.6505 0.0541
0 10 14 -2.4283 0.0726
0 10 16 1.8507 0.0461
0 10 18 -1.9551 0.0188
0 11 1 -6.5402 0.0164
0 11 3 3.7930 0.0277
0 11 5 6.6987 0.0337
0 11 7 -1.0763 0.0221
0 11 9 -6.1097 -0.0061
0 11 11 -2.9406 0.0127
0 11 13 4.0731 0.0259
0 11 15 -0.7243 0.0015
0 11 17 -0.8650 -0.0152
0 12 0 15.7955 -0.0119
0 12 2 0.0737 -0.0176
0 12 4 -7.5694 -0.0020
0 12 6 -4.1572 -0.0247
0 12 8 1.0124 -0.0251
0 12 10 0.2539 -0.0231
0 12 12 -1.5440 -0.0355
0 12 14 1.2943 -0.0282
0 12 16 -1.6345 -0.0661
0 13 1 -7.0213 -0.0325
0 13 3 2.3182 -0.0257
0 13 5 6.3212 -0.0543
0 13 7 0.2672 -0.0331
0 13 9 -1.4280 -0.0242
0 13 11 -0.0337 0.0005
0 13 13 0.0354 0.0124
0 13 15 1.1103 -0.0574
0 14 0 6.1083 -0.0183
0 14 2 3.4011 -0.0295
0 14 4 -4.8792 -0.0168
0 14 6 -0.6006 -0.0072
0 14 8 6.6286 -0.0034
0 14 10 -0.0035 -0.0470
0 14 12 -0.0242 0.1222
0 14 14 2.1294 -0.0980
0 15 1 -4.1842 0.0294
0 15 3 0.9126 0.0263
0 15 5 0.3136 0.0255
0 15 7 -1.3914 0.0584
0 15 9 -1.5132 0.0338
0 15 11 0.7280 -0.0692
0 15 13 -2.0819 -0.2544
0 16 0 0.4128 0.0815
0 16 2 0.0213 0.0836
0 16 4 -1.1719 0.0756
0 16 6 0.5534 0.0120
0 16 8 0.2573 0.1030
0 16 10 -2.4157 -0.0966
0 17 1 1.4953 0.0027
0 17 3 1.0555 -0.0001
0 17 5 -0.3628 0.0303
0 17 7 -0.5832 -0.1380
0 17 9 0.9514 -0.2361
0 18 2 1.0750 -0.2916
0 18 4 -1.4104 -0.2682
0 18 6 -0.4767 -0.2339
1 0 1 -3.4968 -0.6515
1 0 3 -1.6780 -1.3097
1 0 5 1.6672 -1.2490
1 0 7 1.0501 -1.1868
1 0 9 -4.7179 -1.1536
1 0 11 -0.0708 -1.1110
1 0 13 -0.1389 -1.0528
1 0 15 -0.0509 -0.9403
1 0 17 0.7609 -0.9193
1 0 19 0.4326 -0.8363
1 0 21 0.6568 -0.7415
1 1 0 6.4836 -0.7186
1 1 2 3.8321 54.8422
1 1 4 1.1190 30.6121
1 1 6 -8.5910 15.3389
1 1 10 -1.6081 -0.5288
1 1 12 0.7628 8.5168
1 1 14 -0.8081 -1.0958
1 1 16 0.1633 -0.7392
1 1 18 -0.4502 5.0737
1 1 20 0.0459 1.0564
1 1 22 -0.6484 0.3771
1 2 1 -8.1527 -11.8779
1 2 3 1.4550 -51.3312
1 2 5 8.2421 -15.0826
1 2 7 3.4736 10.4963
1 2 9 -1.6247 14.3852
1 2 11 1.0341 -17.6227
1 2 13 0.6474 -3.8165
1 2 15 0.2617 3.8689
1 2 17 -0.6570 0.0975
1 2 19 -1.5543 -5.8537
1 2 21 0.3441 1.8555
1 3 0 7.7257 -1.3761
1 3 2 -4.8305 27.3502
1 3 4 -8.2572 -9.3171
1 3 6 -6.2217 -6.8203
1 3 8 6.2913 -19.7251
1 3 10 0.3190 4.1197
1 3 12 1.1630 9.3170
1 3 14 -1.2556 2.7567
1 3 16 0.7330 -3.1769
1 3 18 3.6389 6.3268
1 3 20 2.6110 -0.1667
1 4 1 1.2411 12.9868
1 4 3 7.5737 3.2869
1 4 5 3.5089 0.5971
1 4 7 -6.1282 10.2843
1 4 9 -5.0103 9.3980
1 4 11 -0.5567 -10.2157
1 4 13 0.6575 -6.6561
1 4 15 -0.0227 -0.8687
1 4 17 -1.6707 -3.3214
1 4 19 -6.0020 -2.3723
1 4 21 -2.6169 0.5127
1 5 0 3.7084 -1.2147
1 5 2 -1.0120 14.8831
1 5 4 2.0571 -10.2351
1 5 6 3.4557 6.3144
1 5 8 3.9410 1.4167
1 5 12 -0.3005 3.5990
1 5 14 -1.4464 4.1181
1 5 16 0.1555 0.8565
1 5 18 2.1307 0.1479
1 5 20 4.5550 -3.7591
1 6 1 -4.3122 -10.0534
1 6 3 -3.6690 -12.0427
1 6 5 -2.4507 -8.1613
1 6 7 0.0535 -7.6648
1 6 9 -0.6551 -0.8741
1 6 11 0.4455 -2.8982
1 6 13 -0.0014 3.1255
1 6 15 -0.2685 1.7565
1 6 17 1.5490 1.3448
1 6 19 -1.6983 3.6927
1 7 0 2.7378 -1.1780
1 7 2 1.3591 15.6771
1 7 4 -1.2886 6.1693
1 7 6 0.1546 6.7252
1 7 8 0.5560 2.7197
1 7 12 1.0469 -2.7591
1 7 14 0.8253 -4.1393
1 7 16 0.9220 0.2526
1 7 18 -2.2259 0.2840
1 7 20 0.8529 -3.1368
1 8 1 -0.1456 -3.5008
1 8 3 3.2883 -2.6388
1 8 5 0.0939 0.2637
1 8 7 -1.3808 7.7069
1 8 11 -1.5820 -3.9400
1 8 13 -1.2326 5.1068
1 8 15 -1.1382 -3.9928
1 8 17 0.1257 -1.1289
1 8 19 1.4925 -1.7181
1 9 0 0.3431 -1.0610
1 9 2 -0.1103 0.7928
1 9 4 -1.3801 -6.2152
1 9 6 1.7535 -4.7314
1 9 8 -0.7924 -0.1759
1 9 12 0.3702 -5.1702
1 9 14 0.6136 3.6049
1 9 16 0.6593 0.2494
1 9 18 -0.7769 0.8741
1 10 1 -1.2389 8.2271
1 10 3 1.4650 -3.4250
1 10 5 -0.0988 3.1533
1 10 7 0.8561 0.0675
1 10 9 2.9745 -3.3139
1 10 13 -1.0033 -0.3862
1 10 15 1.8778 -0.3836
1 10 17 -1.1130 0.7074
1 11 0 0.6538 -1.0004
1 11 2 -1.4423 -0.8179
1 11 4 -2.6838 2.5010
1 11 6 0.5452 -1.9645
1 11 8 -0.2673 0.2789
1 11 12 0.9854 3.2103
1 11 14 -1.3115 4.6397
1 11 16 -1.1139 -0.8171
1 12 1 0.5756 1.9332
1 12 3 2.6565 -3.8603
1 12 5 0.0391 0.8800
1 12 7 -0.8980 0.8508
1 12 9 -1.6984 4.4016
1 12 13 -0.5813 -7.8195
1 12 15 1.0230 -0.3690
1 12 17 -2.0515 0.1104
1 13 0 1.2124 -0.8674
1 13 2 -0.5304 -0.0605
1 13 4 -0.1925 1.9934
1 13 6 0.6493 -0.4484
1 13 8 0.5053 -0.1175
1 13 12 -0.1511 4.8687
1 13 14 0.4267 2.3949
1 14 1 -0.9496 4.9855
1 14 3 0.1184 -1.1679
1 14 5 -1.1936 1.3068
1 14 7 0.9631 -1.8274
1 14 11 0.5090 -3.3542
1 14 13 0.5179 -2.2772
1 15 0 0.6891 -0.7447
1 15 2 -0.4479 -2.4444
1 15 4 0.2221 1.9860
1 15 6 0.5929 -0.3340
1 15 8 0.2408 -1.0553
1 15 10 0.6394 2.0644
1 15 12 -0.1111 4.5048
1 16 1 0.0012 2.9313
1 16 3 0.5751 -2.2867
1 16 5 -1.6082 -1.1479
1 16 7 1.1202 1.6180
1 16 9 -1.5885 1.2138
1 16 11 0.6163 -2.1849
1 17 0 -0.0057 -0.6190
1 17 2 0.5305 -0.6405
1 17 4 0.2536 -0.9971
1 17 8 0.4978 -3.2563
1 18 3 -0.5158 -0.9210
2 0 0 -155.2362 -0.9663
2 0 2 -17.7171 -0.4689
2 0 4 15.1871 -0.6666
2 0 6 6.7428 -0.5550
2 0 8 -17.9179 -0.6367
2 0 10 -6.3242 -0.5673
2 0 12 0.6165 -0.6080
2 0 14 2.4938 -0.5395
2 0 16 -2.3234 -0.5156
2 0 18 -1.3426 -0.5023
2 0 20 1.4318 -0.4611
2 1 1 93.4411 18.1692
2 1 3 -51.6552 37.5677
2 1 5 7.1234 40.9539
2 1 7 12.9467 19.2521
2 1 9 16.0728 3.2473
2 1 11 -2.4952 2.8106
2 1 13 -1.1373 -0.0907
2 1 15 -1.2792 0.9011
2 1 17 0.3667 0.5859
2 1 19 -1.1211 3.9066
2 1 21 0.9771 0.8286
2 2 0 -51.7522 -0.4843
2 2 2 13.7599 -26.4031
2 2 4 7.0294 -36.9710
2 2 6 4.3218 -21.1778
2 2 8 -35.1931 1.3491
2 2 10 3.2416 -2.8725
2 2 12 4.2726 0.7255
2 2 14 5.8652 -0.7734
2 2 16 -0.1369 1.5263
2 2 18 2.6411 -0.8970
2 2 20 0.8230 -1.6840
2 3 1 -4.3519 7.4727
2 3 3 -17.6666 1.3762
2 3 5 1.8679 -1.8136
2 3 9 10.2216 -9.1409
2 3 11 -16.1674 2.8347
2 3 13 0.1794 -0.5758
2 3 15 -2.4354 -1.1744
2 3 17 -1.4549 -2.9995
2 3 19 -2.8068 1.3429
2 3 21 -2.0420 -0.8810
2 4 0 16.7376 -0.8669
2 4 2 8.3084 7.0275
2 4 4 -3.6194 14.0981
2 4 6 -3.2999 15.1554
2 4 10 15.8986 -2.3577
2 4 12 0.3370 1.3553
2 4 14 0.7745 -1.7138
2 4 16 -1.5165 2.8068
2 4 18 1.3635 0.3479
2 4 20 1.5773 -1.5010
2 5 1 -11.5872 2.6574
2 5 3 19.2435 -3.1236
2 5 5 4.7392 -6.5013
2 5 9 -1.2558 -4.9105
2 5 11 -2.6739 1.7170
2 5 13 0.5535 -1.9154
2 5 15 0.7915 -0.0334
2 5 17 2.6919 -1.2419
2 5 19 0.0280 1.5903
2 5 21 0.0114 1.2429
2 6 0 14.3869 -0.5811
2 6 2 -13.5066 -9.2413
2 6 4 -18.8386 -0.3799
2 6 6 -3.5246 1.1301
2 6 8 -4.2565 4.7640
2 6 10 8.2271 -2.9867
2 6 12 -5.0698 3.8672
2 6 14 0.1679 -0.0014
2 6 16 -0.9669 4.2585
2 6 18 -1.9131 -0.8905
2 6 20 1.0659 -0.8422
2 7 1 -11.0627 4.9780
2 7 3 16.4869 0.5889
2 7 5 7.9308 -2.1255
2 7 7 -6.1146 -0.5849
2 7 9 -1.2591 3.1654
2 7 11 5.7728 1.5039
2 7 13 2.5586 -1.9873
2 7 15 -3.7625 -0.9114
2 7 17 1.8859 -3.2088
2 7 19 -0.1612 0.1289
2 8 0 18.5571 -0.7317
2 8 2 0.2715 5.1229
2 8 4 -0.6100 5.3125
2 8 6 -1.6000 -0.6012
2 8 8 1.3093 -2.0561
2 8 10 -3.9202 -3.0772
2 8 12 -5.6585 0.8599
2 8 14 2.3128 -2.7386
2 8 16 -0.0439 1.2114
2 8 18 -0.6949 0.5813
2 9 1 -5.6903 -4.3491
2 9 3 0.2412 -6.9103
2 9 5 1.9223 -0.3764
2 9 7 -3.2005 -0.7983
2 9 9 3.0121 0.7589
2 9 11 5.8829 -1.4048
2 9 15 -0.8958 3.8094
2 9 17 1.2251 -0.8216
2 9 19 0.8682 0.8116
2 10 0 -2.3582 -0.6177
2 10 2 -2.9042 4.3081
2 10 4 3.3544 0.6440
2 10 6 1.1140 1.5358
2 10 8 -1.1823 3.5643
2 10 10 -7.6311 -0.4237
2 10 14 2.0778 -1.8558
2 10 16 0.1840 -0.5948
2 10 18 1.7845 0.0183
2 11 1 7.4373 -1.2358
2 11 3 -3.1585 -0.4077
2 11 5 -6.2199 0.1182
2 11 7 -0.6593 -2.0473
2 11 9 9.4946 0.4524
2 11 15 -1.4191 -0.9073
2 11 17 -1.3153 -0.1339
2 12 0 -11.1179 -0.6075
2 12 2 -0.5589 2.2890
2 12 4 8.0778 -0.4273
2 12 6 3.7162 -1.3580
2 12 8 -4.2402 -1.1095
2 12 14 -2.5676 3.7167
2 12 16 3.1537 -0.0556
2 13 1 4.2829 -2.2615
2 13 3 -3.9682 -1.4695
2 13 5 -4.2360 -2.2618
2 13 7 -1.0741 2.1872
2 13 13 1.5749 1.6714
2 13 15 -0.2318 -1.3148
2 14 0 -3.2142 -0.5090
2 14 2 -1.3085 1.4121
2 14 4 4.0894 3.2642
2 14 14 -3.2237 -3.4148
2 15 1 2.0346 -0.3313
2 15 3 -2.6383 1.8176
2 15 13 1.9312 4.4886
2 16 0 0.4741 -0.5218
2 16 2 0.8482 -3.0992
2 17 1 0.2202 0.6613
2 18 0 -1.0776 -0.3523
3 0 1 -0.2427 -0.1123
3 0 3 0.5557 -0.7656
3 0 7 -2.2808 -0.5969
3 0 9 6.1678 -0.5456
3 0 11 0.8439 -0.5153
3 0 13 2.4671 -0.5092
3 0 15 2.3430 -0.4662
3 0 17 -0.1163 -0.4696
3 0 19 -1.2189 -0.4467
3 0 21 1.1596 -0.3539
3 1 0 2.7765 -0.1367
3 1 2 -4.2711 -14.7612
3 1 4 -14.3266 -3.6526
3 1 6 -6.1236 -4.5810
3 1 8 5.9730 7.0705
3 1 10 -4.6933 4.7651
3 1 12 3.1941 -2.0896
3 1 14 -5.3102 1.8443
3 1 16 -0.1721 0.5989
3 1 18 -0.5850 -0.9539
3 1 20 -2.0206 -0.5284
3 2 1 2.7079 6.6176
3 2 3 6.2357 -5.7735
3 2 5 17.1123 18.1855
3 2 7 -13.7263 -13.3116
3 2 9 -0.3852 -13.5618
3 2 11 -2.6219 5.3274
3 2 13 0.4331 1.3074
3 2 15 1.6051 -3.9066
3 2 17 2.7670 -2.0135
3 2 19 0.9387 0.7529
3 2 21 1.7740 -0.1698
3 3 2 1.7504 9.0519
3 3 4 -12.6703 0.8951
3 3 6 -7.2076 -9.3487
3 3 8 6.3752 11.6788
3 3 10 -4.8779 -1.1748
3 3 12 5.2937 -3.4360
3 3 14 -1.4625 -0.2847
3 3 16 0.3190 1.9588
3 3 18 -2.9203 1.1526
3 3 20 1.4916 -0.6187
3 4 1 -2.3041 -16.8145
3 4 3 0.9464 -22.1033
3 4 7 3.6159 -2.9700
3 4 9 8.3703 -2.7995
3 4 11 -4.5064 6.4357
3 4 13 -1.1277 5.4375
3 4 15 -1.9798 -1.7546
3 4 17 1.2650 0.9680
3 4 19 -1.6065 0.7785
3 4 21 -0.7807 2.4151
3 5 0 0.2880 -0.4408
3 5 2 1.1200 18.8848
3 5 4 -11.0728 -2.9593
3 5 6 -13.6324 -5.5607
3 5 8 -1.8801 0.7383
3 5 10 -1.1664 -2.3877
3 5 12 4.6839 -3.9697
3 5 14 0.5392 0.8253
3 5 16 1.2418 1.0682
3 5 18 0.0169 -0.0332
3 5 20 2.0971 -2.4936
3 6 1 -1.7573 -8.2405
3 6 3 -3.7146 -8.1910
3 6 5 5.3569 5.9313
3 6 7 -2.3519 -5.3953
3 6 9 1.3022 -2.6521
3 6 11 -6.3632 2.5525
3 6 13 3.7069 -1.9788
3 6 15 -1.4865 -6.1958
3 6 17 0.3038 -2.1166
3 6 19 -0.7827 1.8333
3 7 0 2.3508 -0.6704
3 7 2 7.4241 1.3255
3 7 4 9.2822 -1.5647
3 7 6 -0.9908 1.8152
3 7 8 -0.1209 -0.6382
3 7 10 1.0618 3.0565
3 7 12 -0.1480 -1.9939
3 7 14 -1.9518 5.7327
3 7 16 0.8244 1.7489
3 7 18 -0.3470 -0.6602
3 7 20 -0.1686 -1.4681
3 8 1 -2.3859 3.3405
3 8 3 -7.6589 0.3253
3 8 5 1.6569 -0.9633
3 8 7 6.1651 -0.4043
3 8 9 1.4383 4.2157
3 8 11 -0.8019 2.9409
3 8 13 1.3622 -1.7332
3 8 15 -2.0404 0.0107
3 8 17 -0.4920 0.0683
3 8 19 -0.4187 2.6593
3 9 0 0.7368 -0.5423
3 9 2 -0.1012 -2.2654
3 9 4 -2.7212 8.0221
3 9 6 -6.5426 1.5936
3 9 8 -0.4866 -7.3611
3 9 10 1.8217 0.4867
3 9 12 0.5589 1.8246
3 9 16 0.5581 0.1085
3 9 18 1.0573 0.0552
3 10 1 -0.3573 -3.2567
3 10 3 1.3569 -3.5686
3 10 5 0.6101 -6.6176
3 10 7 0.4679 2.4018
3 10 9 -4.8000 -2.0086
3 10 11 0.8779 -6.8273
3 10 15 2.5114 0.2345
3 10 17 0.8137 -0.1625
3 11 0 0.9543 -0.5522
3 11 2 1.9151 1.3726
3 11 4 4.0402 4.2452
3 11 6 0.8007 4.7590
3 11 8 1.2678 -0.7626
3 11 10 -2.4681 8.4137
3 11 16 -0.0383 -3.1848
3 12 1 -1.3744 2.8512
3 12 3 -2.6526 1.5533
3 12 5 -1.4422 -4.5293
3 12 7 -0.0862 0.0846
3 12 9 2.0812 -1.4021
3 12 15 -1.3445 6.2181
3 13 0 0.5478 -0.4779
3 13 2 0.5404 -4.8962
3 13 4 -0.0291 -0.0640
3 13 6 -1.1055 1.5621
3 13 8 1.8308 -2.4800
3 14 1 -2.0495 1.6724
3 14 3 0.4481 2.7071
3 14 5 1.4242 -1.5080
3 15 0 3.7982 -0.4913
3 15 2 1.9566 -3.1144
3 15 4 0.4553 0.2007
3 16 1 -2.4382 2.3445
3 16 3 -0.9637 1.5220
3 17 0 0.7178 -0.3323
3 17 2 -0.3040 -1.7334
3 18 1 0.3440 -0.4590
4 0 0 52.6161 -1.2806
4 0 2 -5.1480 -0.8358
4 0 4 -27.3084 -1.0555
4 0 6 -5.5490 -0.9090
4 0 8 12.5789 -0.9927
4 0 10 3.8154 -0.8848
4 0 12 -3.9269 -0.9019
4 0 14 -0.3156 -0.7886
4 0 16 -1.0139 -0.7786
4 0 18 1.0746 -0.6744
4 0 20 -1.1791 -0.5929
4 1 1 -28.6001 7.7074
4 1 3 33.6736 -2.4006
4 1 5 16.5482 -11.8049
4 1 7 -15.9518 -4.4967
4 1 9 -6.1521 2.9183
4 1 11 2.9543 2.0955
4 1 13 1.4936 2.6556
4 1 15 -1.3595 0.6851
4 1 17 1.7546 1.2090
4 1 19 -1.6112 -2.1604
4 1 21 0.4686 0.3769
4 2 0 13.0825 -0.8824
4 2 2 -7.0095 -13.5885
4 2 4 -14.2608 6.1523
4 2 6 -0.2189 2.1277
4 2 8 11.8329 -1.6718
4 2 10 1.3164 0.8773
4 2 12 -3.2719 -4.8147
4 2 14 -0.5962 -0.8991
4 2 16 0.0510 -1.2943
4 2 18 0.0540 1.3115
4 2 20 0.9083 1.9422
4 3 1 -0.1410 13.8951
4 3 3 2.7240 7.1212
4 3 5 0.4833 6.4709
4 3 7 -6.5378 3.2962
4 3 9 0.0424 -4.2353
4 3 11 2.5093 -0.6324
4 3 13 -0.5248 1.1213
4 3 15 -1.1487 1.5495
4 3 17 1.2412 -0.8604
4 3 19 0.3940 -4.0696
4 3 21 0.9083 0.5218
4 4 0 -9.1158 -1.0075
4 4 2 6.9409 -10.7624
4 4 4 2.8237 2.4256
4 4 6 2.6335 -4.6504
4 4 8 -1.8072 3.4142
4 4 10 -1.3494 7.1903
4 4 12 0.4121 -0.1056
4 4 14 2.7498 0.6531
4 4 16 0.1861 0.9265
4 4 18 0.3601 1.9067
4 4 20 -1.7991 2.5214
4 5 1 5.1640 5.0058
4 5 3 -9.8461 -9.5534
4 5 5 -7.1672 -3.8801
4 5 7 6.1265 -2.1572
4 5 9 6.1351 -3.9684
4 5 11 -3.7321 -1.3695
4 5 13 -1.1309 -0.1288
4 5 15 -0.9307 -1.8275
4 5 17 -0.7128 -1.6783
4 5 19 -0.1762 0.0533
4 6 0 -12.4118 -0.9191
4 6 2 4.2042 6.3148
4 6 4 13.3218 8.9852
4 6 6 -2.0139 -0.2209
4 6 8 -8.0368 3.2336
4 6 10 -2.6364 -0.4835
4 6 12 2.8195 4.0807
4 6 14 2.6527 0.2950
4 6 16 -2.3817 2.8480
4 6 18 0.9666 -1.1643
4 6 20 -0.2263 0.3070
4 7 1 7.5495 -0.5446
4 7 3 -7.1940 -2.9574
4 7 5 -10.7020 0.8406
4 7 7 7.7296 -3.8008
4 7 9 2.2120 -2.5738
4 7 11 -3.6428 -8.9470
4 7 13 -2.0705 -4.3167
4 7 15 2.7588 -3.1712
4 7 17 0.4009 -1.0683
4 7 19 0.2243 1.4482
4 8 0 -8.5704 -0.9256
4 8 2 -1.2628 -6.2747
4 8 4 5.4471 0.7143
4 8 6 -0.6764 2.3248
4 8 8 3.1134 6.4576
4 8 10 0.2657 5.0063
4 8 12 0.5321 10.6190
4 8 14 -1.4315 -1.0550
4 8 18 0.3439 -0.9194
4 9 1 2.9398 6.1596
4 9 3 -0.7623 -0.4777
4 9 5 1.2770 -1.8624
4 9 7 2.7567 -4.2238
4 9 9 -0.7451 -1.3248
4 9 11 -0.5297 -4.8244
4 9 13 1.7818 2.4706
4 9 17 -2.4916 -3.0708
4 10 0 3.6312 -0.7924
4 10 2 0.6127 0.3883
4 10 4 -3.7350 4.5325
4 10 6 -6.4493 0.2782
4 10 8 -0.3936 -1.8186
4 10 10 1.7963 1.9970
4 10 12 0.0208 -1.2856
4 11 1 -6.9891 1.7176
4 11 3 2.8300 -5.0848
4 11 5 5.6212 0.2073
4 11 7 0.8974 0.3955
4 11 9 -4.7485 0.5147
4 11 11 -1.5888 -0.3654
4 11 17 -0.9143 -2.3861
4 12 0 9.0043 -0.7674
4 12 2 0.9593 -2.0169
4 12 4 -4.7430 1.6326
4 12 6 -1.4530 1.6700
4 12 8 3.5672 -1.2953
4 12 10 1.7130 0.7640
4 13 1 -2.1256 4.6432
4 13 3 3.9604 0.1945
4 13 5 1.3781 -0.0969
4 13 7 1.8176 -0.5380
4 13 9 -3.0568 -0.5290
4 14 0 2.7377 -0.5994
4 14 2 -1.2715 -3.2061
4 14 4 -3.3408 0.2753
4 14 6 -1.0577 0.7019
4 15 1 -3.4298 3.4035
4 15 3 3.5485 0.1686
4 15 5 -0.0072 -1.9810
4 16 0 2.8265 -0.5940
4 16 2 0.4483 -1.3044
4 16 4 -1.9901 1.2261
4 17 1 -0.3440 2.0963
4 17 3 -0.7876 0.0124
4 18 0 -0.7687 -0.4491
4 18 2 1.8149 -0.7466
5 0 1 3.2470 -0.5511
5 0 3 -0.6817 -1.3602
5 0 7 -2.3192 -1.2024
5 0 9 1.8644 -1.0472
5 0 11 0.7762 -1.0697
5 0 13 -0.7987 -0.9609
5 0 15 -2.3078 -0.8968
5 0 17 1.3406 -0.8389
5 0 19 2.5691 -0.7228
5 1 0 -3.6147 -0.5828
5 1 2 1.1990 4.6161
5 1 4 5.2789 11.3065
5 1 6 -5.1793 5.3462
5 1 8 2.5964 8.0936
5 1 10 -1.9760 9.9312
5 1 12 -0.4466 7.4622
5 1 14 2.0574 7.5496
5 1 16 -0.3858 3.6308
5 1 18 -1.9649 3.9626
5 1 20 -0.1616 2.6852
5 2 1 -0.9885 7.5442
5 2 3 -6.4173 -5.1265
5 2 5 0.4667 -3.3841
5 2 7 3.1391 -1.6470
5 2 9 0.7946 -0.0499
5 2 11 0.3867 -7.0122
5 2 13 0.7761 -5.5007
5 2 15 -1.2713 -2.0289
5 2 17 1.7303 0.0486
5 2 19 0.2263 -2.0689
5 3 0 3.0654 -1.3644
5 3 2 1.7332 -9.2484
5 3 4 0.3054 -1.0145
5 3 6 -3.8785 -8.0440
5 3 8 -1.8361 -5.2111
5 3 10 -0.3334 -0.9719
5 3 12 -1.8114 -2.1273
5 3 14 1.2348 1.4206
5 3 16 0.4491 -3.2553
5 3 18 0.6541 -0.7805
5 3 20 -0.4649 -1.3887
5 4 1 -3.8574 13.9024
5 4 3 2.6098 1.3987
5 4 5 2.2001 5.4004
5 4 7 0.7333 -2.1008
5 4 9 -1.1491 10.6159
5 4 11 1.4656 -3.4274
5 4 13 -0.2556 -1.4535
5 4 15 -1.7773 1.4486
5 4 17 -1.1354 0.7231
5 4 19 -0.1460 -0.4131
5 5 0 -0.0352 -1.0441
5 5 2 3.2786 1.4750
5 5 4 -1.2226 3.0409
5 5 6 -0.2485 0.6385
5 5 8 2.6423 -0.6944
5 5 10 1.2668 6.0047
5 5 12 -0.4100 2.4034
5 5 14 -0.5098 1.4552
5 5 16 1.1053 -0.6196
5 5 18 -1.5005 3.1659
5 5 20 -0.8250 1.2004
5 6 1 0.7667 1.5486
5 6 3 -0.5835 -10.5052
5 6 5 -0.5829 -0.1500
5 6 7 0.2448 -7.5860
5 6 9 -3.9941 3.3806
5 6 11 2.2344 -9.8732
5 6 13 -0.5480 2.8944
5 6 15 0.0878 -0.3723
5 6 17 1.8729 0.1523
5 6 19 1.8780 -2.1516
5 7 0 -0.4070 -1.1491
5 7 2 -1.1015 4.9412
5 7 4 -1.6345 0.8645
5 7 6 -0.4681 5.2886
5 7 8 2.7894 -3.7035
5 7 10 -0.7041 3.3672
5 7 12 -1.4722 -3.8580
5 7 14 1.4676 0.1372
5 7 16 -0.1207 -0.3474
5 7 18 -0.8710 0.0380
5 8 1 -1.1438 2.5195
5 8 3 2.1186 0.5725
5 8 5 0.9149 0.1244
5 8 7 -0.4992 2.1747
5 8 9 0.2028 1.2955
5 8 11 0.0551 -1.7056
5 8 13 0.1142 5.1664
5 8 15 0.1024 -3.7306
5 9 0 0.8061 -0.9141
5 9 2 -1.5279 -4.0016
5 9 4 0.4572 -3.0045
5 9 6 -2.8422 0.8809
5 9 8 -1.0934 -0.3380
5 9 10 -1.1459 5.9684
5 9 12 0.3154 -5.2567
5 9 14 0.4348 3.9500
5 9 18 0.4333 -1.0450
5 10 1 1.9340 6.6922
5 10 3 -0.1465 2.0201
5 10 5 3.1730 -4.2296
5 10 7 0.2532 -0.5621
5 10 9 2.1939 -4.1770
5 10 11 0.1292 -0.9981
5 10 13 -0.4205 0.1162
5 11 0 -0.4258 -0.9270
5 11 2 -0.3396 -1.9394
5 11 4 -2.2490 3.8739
5 11 6 0.6282 0.7936
5 11 8 1.5702 2.1609
5 11 10 -0.8144 2.3497
5 11 12 1.0367 -0.6044
5 12 1 0.1503 -0.3033
5 12 3 0.1314 -2.7538
5 12 5 -0.5358 -0.1007
5 12 7 -0.5628 1.7266
5 12 9 -1.3011 -1.6087
5 12 11 -0.3887 -1.4815
5 13 0 -0.7229 -0.7351
5 13 2 0.1239 -0.5101
5 13 4 0.1927 0.4294
5 13 6 0.5640 -4.0965
5 13 8 -1.4208 -1.1629
5 13 10 -0.4926 0.6829
5 14 1 0.3618 4.4425
5 14 3 -1.3945 3.2176
5 14 5 0.5420 0.7971
5 14 7 0.8916 2.3180
5 15 0 0.2988 -0.6920
5 15 2 0.8182 -3.8942
5 15 4 -0.5449 -0.5992
5 15 6 0.2194 2.3604
5 16 1 0.5928 0.5870
5 16 3 -0.8923 -0.2779
5 16 5 0.3301 -3.9682
5 17 0 -0.3645 -0.5204
5 17 2 0.0230 1.0081
5 17 4 -0.2423 1.6953
6 0 0 -27.1219 -1.0879
6 0 2 -2.0651 -0.7142
6 0 4 18.3796 -0.8798
6 0 6 0.3723 -0.7847
6 0 8 -4.6169 -0.8200
6 0 10 -0.7065 -0.7484
6 0 12 1.3904 -0.7502
6 0 14 0.8033 -0.6599
6 0 16 0.8387 -0.6763
6 0 18 -1.8714 -0.5427
6 0 20 -2.1347 -0.5401
6 1 1 16.7969 2.1340
6 1 3 -15.3636 4.6623
6 1 5 -10.8140 4.7041
6 1 7 4.4337 3.7939
6 1 9 5.4707 5.3271
6 1 11 -5.4987 10.0010
6 1 13 2.0352 5.4792
6 1 15 -0.1456 5.7157
6 1 17 0.1980 2.2333
6 1 19 1.7159 0.3541
6 2 0 -10.6371 -0.6716
6 2 2 2.3711 -5.5424
6 2 4 10.6805 0.5317
6 2 6 -1.3606 -1.2113
6 2 8 -1.4441 1.4815
6 2 10 -0.3308 -6.7267
6 2 12 -0.2088 -1.9566
6 2 14 0.4114 -2.9879
6 2 16 0.5024 -0.6699
6 2 18 0.3872 1.2011
6 2 20 -0.8539 0.8727
6 3 1 1.2265 4.7281
6 3 3 -2.9277 0.6316
6 3 5 1.0099 -6.0245
6 3 7 2.3786 -4.1173
6 3 9 0.1771 -3.4242
6 3 11 -1.5869 -3.1673
6 3 13 0.4907 -1.6689
6 3 15 -1.3027 -2.9789
6 3 17 -1.3623 -2.5365
6 3 19 -0.5703 -1.6331
6 4 0 3.0689 -0.9010
6 4 2 -1.6887 -2.0780
6 4 4 -4.0202 4.5354
6 4 6 -1.2819 -3.0681
6 4 8 0.5692 8.0336
6 4 10 1.0331 1.3428
6 4 12 1.0555 2.6443
6 4 14 0.3170 -2.3141
6 4 16 -0.7018 3.5534
6 4 18 -0.0722 -0.2557
6 5 1 -4.2410 2.3528
6 5 3 5.9023 -3.8227
6 5 5 6.0583 3.6711
6 5 7 -2.4873 1.8577
6 5 9 -3.5042 -2.0704
6 5 11 1.3309 -0.6400
6 5 13 0.1535 4.0938
6 5 15 0.6230 2.2433
6 5 17 0.7405 0.6111
6 5 19 0.8004 0.3462
6 6 0 11.5682 -0.7886
6 6 2 0.7440 -0.5579
6 6 4 -11.9500 5.0810
6 6 6 1.9820 -5.7241
6 6 8 2.5234 3.0301
6 6 10 -0.5219 -0.1317
6 6 12 -2.3353 0.7074
6 6 14 -1.2704 -4.9095
6 6 16 0.0815 2.0671
6 6 18 -0.0326 -2.5597
6 7 1 -8.2284 6.7837
6 7 3 4.7919 -6.0252
6 7 5 5.8592 -0.3114
6 7 7 -2.8894 -1.5890
6 7 9 -1.8637 -1.1216
6 7 11 5.0604 -2.6018
6 7 13 1.3676 3.7392
6 7 15 -0.5059 -1.0175
6 7 17 0.3644 -1.9918
6 8 0 6.6294 -0.7446
6 8 2 0.7447 1.3117
6 8 4 -4.6710 1.5409
6 8 6 2.1667 -0.2586
6 8 8 -0.5197 2.2901
6 8 10 -1.5719 -1.8577
6 8 12 0.3358 -1.1729
6 8 14 1.5268 -4.1262
6 8 16 -0.7836 4.0077
6 9 1 -1.8828 1.0282
6 9 3 1.9713 -1.6752
6 9 5 -0.4691 1.1868
6 9 7 -1.6739 -0.5698
6 9 9 -0.6923 5.9062
6 9 11 1.2543 0.5310
6 9 13 -3.1027 4.9754
6 9 15 -1.1177 -0.5836
6 10 0 -1.9051 -0.6922
6 10 2 0.0645 -1.1798
6 10 4 1.1645 -0.2816
6 10 6 1.3063 -1.3933
6 10 8 0.7722 -2.7727
6 10 10 -1.3116 -6.5083
6 10 12 0.9740 1.3236
6 10 14 0.5070 -2.8084
6 11 1 4.0564 3.7854
6 11 3 -1.7585 -0.6639
6 11 5 -1.9610 1.2945
6 11 7 1.5168 2.3933
6 11 9 0.4025 4.3506
6 11 11 0.7921 -1.6244
6 11 13 -1.0853 1.0875
6 12 0 -4.4959 -0.6280
6 12 2 -0.9987 -0.8739
6 12 4 2.3307 1.6307
6 12 6 1.2802 -4.1052
6 12 8 -1.9747 -2.4108
6 12 10 1.5638 -0.7026
6 12 12 1.7344 0.1720
6 13 1 -0.4514 4.0821
6 13 3 -1.2790 -1.5978
6 13 5 -1.4089 1.2794
6 13 7 -0.5374 4.0543
6 13 9 -0.3749 2.9732
6 14 0 0.7207 -0.5213
6 14 2 2.3239 -2.8685
6 14 4 0.2961 0.4743
6 14 6 -0.2445 -2.4755
6 14 8 -1.7195 -2.8582
6 15 1 0.0533 3.4337
6 15 3 -1.5884 -0.4708
6 15 5 1.2268 0.6919
6 15 7 1.4018 0.4089
6 16 0 -0.3247 -0.4531
6 16 2 0.1749 -1.5092
6 16 4 0.2918 1.5828
6 16 6 -0.8157 -0.2910
6 17 1 -0.5938 0.6010
6 17 3 0.7598 -0.7155
7 0 1 -1.3770 -0.1060
7 0 3 -0.6695 -0.5910
7 0 5 -0.5849 -0.3153
7 0 7 0.6490 -0.5002
7 0 9 2.8189 -0.3851
7 0 11 0.6505 -0.4535
7 0 13 1.0936 -0.3687
7 0 15 -1.4440 -0.4165
7 0 17 -1.2078 -0.3346
7 0 19 0.5518 -0.3732
7 1 0 3.1099 -0.1137
7 1 2 -0.9729 -0.2510
7 1 4 -0.9462 -1.4715
7 1 6 1.4646 -0.4901
7 1 8 -0.5721 1.5693
7 1 10 -4.5335 -4.9610
7 1 12 1.3010 -0.2965
7 1 14 -1.6059 1.0570
7 1 16 2.6658 3.0187
7 1 18 -0.7836 0.0689
7 2 1 -1.0502 -0.3161
7 2 3 1.9055 2.4210
7 2 5 -0.3769 2.6695
7 2 7 -2.2573 -1.7966
7 2 9 2.0294 -2.1183
7 2 11 -0.7115 -0.5323
7 2 13 0.1883 0.8178
7 2 15 1.1073 -2.6876
7 2 17 -2.0378 -1.2659
7 2 19 0.6672 1.1383
7 3 0 0.5871 -0.5920
7 3 2 1.1819 2.1250
7 3 4 0.2801 -3.9710
7 3 6 0.7976 -2.7148
7 3 8 2.7774 7.6202
7 3 10 0.8043 0.5894
7 3 12 3.7799 0.8013
7 3 14 -3.2427 -2.6368
7 3 16 1.0858 0.3503
7 3 18 -0.0636 -3.2168
7 4 1 1.4152 -3.1308
7 4 3 -4.0505 -1.9606
7 4 5 0.6166 4.3042
7 4 7 -0.7342 0.4613
7 4 9 -2.9933 -3.9902
7 4 11 -1.8566 -2.1260
7 4 13 0.3499 5.5987
7 4 15 0.7288 1.3361
7 4 17 -1.4892 2.9926
7 4 19 0.0974 2.9903
7 5 0 0.9828 -0.3317
7 5 2 -0.5139 2.6236
7 5 4 1.1911 -3.2292
7 5 6 0.4691 -2.2900
7 5 8 1.0993 1.0525
7 5 10 -0.7570 -0.6485
7 5 12 0.8300 1.1627
7 5 14 0.1503 -0.2312
7 5 16 1.7930 -0.5252
7 5 18 1.7873 -4.3983
7 6 1 -2.0268 0.3407
7 6 3 -1.8459 0.6912
7 6 5 1.7382 4.2104
7 6 7 -1.3970 1.9219
7 6 9 1.4518 1.2980
7 6 11 -0.3478 -1.2639
7 6 13 -0.7671 -0.8561
7 6 15 -0.6315 -1.9644
7 6 17 -1.3492 2.6508
7 7 0 1.6215 -0.4905
7 7 2 1.5408 -1.0789
7 7 4 0.1123 -1.6227
7 7 6 -1.3436 -1.6826
7 7 8 -1.7737 -1.3325
7 7 10 0.6828 -0.4487
7 7 12 1.4622 0.4062
7 7 14 -1.7565 0.0793
7 7 16 -1.3492 -2.7396
7 8 1 1.3605 1.4132
7 8 3 -0.1265 -0.5022
7 8 5 1.8779 0.3192
7 8 7 0.6042 -2.4311
7 8 9 -0.0608 0.4467
7 8 11 -0.4459 1.2811
7 8 13 0.6352 0.2379
7 8 15 1.1490 2.0393
7 8 17 3.4828 2.8026
7 9 0 0.1178 -0.3685
7 9 2 -0.6989 0.1113
7 9 4 -2.1195 0.3956
7 9 6 -0.0848 3.2462
7 9 8 0.2413 0.9635
7 9 10 1.0002 -1.6669
7 9 12 -1.2749 0.5147
7 9 14 0.6831 -0.5595
7 9 16 -0.9089 -1.9440
7 10 1 -2.1092 -0.6086
7 10 3 1.6613 -0.7103
7 10 5 0.9500 0.6517
7 10 7 0.2489 -1.3943
7 10 9 0.4854 -1.6143
7 10 11 -0.8730 1.0214
7 10 13 0.6827 -0.6846
7 10 15 -1.5329 -0.6726
7 11 0 0.5194 -0.4450
7 11 2 -0.6573 -0.3879
7 11 4 -0.3877 -0.7625
7 11 6 -0.8740 -0.2923
7 11 8 -0.9230 -0.1717
7 11 10 1.9245 0.9960
7 11 12 -1.0309 0.7260
7 11 14 0.4915 0.2091
7 12 1 1.2220 2.2739
7 12 3 0.6202 1.0942
7 12 5 1.1999 -0.5858
7 12 7 -2.3413 2.1392
7 12 9 0.2802 0.2413
7 12 11 -2.1825 -0.6219
7 12 13 2.0406 0.4761
7 13 0 -0.3356 -0.3255
7 13 2 0.5300 -1.4760
7 13 4 -2.0232 0.0290
7 13 6 0.9006 -0.1949
7 13 8 1.0993 -2.1071
7 13 10 0.6466 0.5142
7 14 1 -1.8931 1.4667
7 14 3 2.0278 -0.6034
7 14 5 0.8877 1.4559
7 14 7 -0.5493 0.6159
7 14 9 0.3755 1.4354
7 15 0 2.0786 -0.3418
7 15 2 -0.1348 -2.0676
7 15 4 -1.5612 -0.1553
7 15 6 -0.3372 -1.5810
7 15 8 0.5369 -1.6960
7 16 1 -1.3891 2.5137
7 16 3 1.7765 0.4210
7 16 5 0.2923 1.1010
8 0 0 9.0241 -0.6033
8 0 2 -3.3059 -0.3867
8 0 4 -4.4767 -0.4432
8 0 6 -1.0069 -0.4078
8 0 8 2.8224 -0.4435
8 0 10 -0.1906 -0.4112
8 0 12 -0.6541 -0.4200
8 0 14 0.5618 -0.3845
8 0 16 1.7231 -0.3614
8 0 18 -1.1272 -0.3711
8 1 1 -4.4052 3.8220
8 1 3 4.4776 2.4722
8 1 5 2.7516 1.2217
8 1 7 3.2963 2.4644
8 1 9 -2.3990 -2.7683
8 1 11 1.3039 -1.2626
8 1 13 0.6079 0.6261
8 1 15 -4.8998 -1.2354
8 1 17 0.0394 0.5434
8 2 0 4.8329 -0.3505
8 2 2 -0.8296 -4.5720
8 2 4 0.1334 -1.8545
8 2 6 -4.3220 -6.4675
8 2 8 -2.3584 3.6882
8 2 10 -2.0811 0.1848
8 2 12 2.1478 -1.7768
8 2 14 2.4695 -1.0661
8 2 16 1.5086 0.4233
8 2 18 -0.2195 -1.0357
8 3 1 1.1698 2.0828
8 3 3 -2.6496 -1.3429
8 3 5 0.9561 4.5433
8 3 7 0.3811 1.3863
8 3 9 2.7342 -4.1548
8 3 11 -1.2180 3.7834
8 3 13 -0.7598 2.1380
8 3 15 -1.0631 -1.0361
8 3 17 1.2664 0.4964
8 4 0 -4.3287 -0.4648
8 4 2 0.0819 1.4333
8 4 4 2.4283 4.2930
8 4 6 -0.7592 -0.9298
8 4 8 -0.1241 3.9831
8 4 10 -1.1709 -1.7187
8 4 12 1.9597 0.9724
8 4 14 -0.5104 -0.5778
8 4 16 0.1485 1.9904
8 4 18 -0.3211 -0.0911
8 5 1 3.0951 1.6016
8 5 3 -2.8231 -4.2018
8 5 5 -1.2829 -1.6679
8 5 7 -0.9506 -3.6915
8 5 9 3.3249 -1.2613
8 5 11 -2.0351 0.0420
8 5 13 -1.3392 0.3840
8 5 15 0.2058 -1.8775
8 5 17 0.9940 -0.0276
8 6 0 -6.5459 -0.3809
8 6 2 0.6859 -0.5571
8 6 4 4.7840 0.8154
8 6 6 1.2979 -0.0334
8 6 8 -3.0410 2.4935
8 6 10 0.9598 -2.1864
8 6 12 1.4987 1.7487
8 6 14 0.5733 -2.0653
8 6 16 -0.3649 1.4312
8 7 1 3.4560 -2.3416
8 7 3 -1.8648 -0.4220
8 7 5 -2.2352 2.2804
8 7 7 0.7424 0.0026
8 7 9 2.7969 2.4937
8 7 11 0.7641 0.4759
8 7 13 -2.1786 -0.7490
8 7 15 -0.9645 -0.3002
8 7 17 -1.6150 0.1915
8 8 0 -2.8850 -0.4311
8 8 2 0.5013 0.7583
8 8 4 -0.4989 1.8358
8 8 6 -0.4588 -2.5793
8 8 8 -2.2482 -3.1969
8 8 10 -1.6913 -3.4197
8 8 12 -2.6403 3.1235
8 8 14 1.9253 -0.8274
8 8 16 1.4660 1.1809
8 9 1 -0.2561 -0.5705
8 9 3 -0.6224 -0.4306
8 9 5 1.8297 0.4549
8 9 7 1.9095 2.9340
8 9 9 -0.2891 3.5766
8 9 11 3.0910 -0.0489
8 9 13 -0.7324 -0.9321
8 9 15 0.6500 -0.0819
8 10 0 2.0641 -0.3831
8 10 2 1.4914 0.6865
8 10 4 -1.7198 1.5500
8 10 6 -0.4867 -0.8260
8 10 8 0.1378 -1.2352
8 10 10 0.9647 -1.2849
8 10 12 -0.5888 0.3021
8 10 14 0.7505 -1.0907
8 11 1 -2.5566 -2.6101
8 11 3 0.4649 -0.5012
8 11 5 0.0894 -4.0492
8 11 7 -0.6952 -0.6100
8 11 9 -1.8782 -0.1825
8 11 11 0.0189 0.6631
8 11 13 -0.8047 0.6752
8 12 0 1.9548 -0.3650
8 12 2 0.3798 -0.5064
8 12 4 0.2077 2.5798
8 12 6 -0.9765 1.9711
8 12 8 1.3102 1.5485
8 12 10 0.1780 -0.8393
8 12 12 -0.7622 1.1058
8 13 1 -1.1491 0.1741
8 13 3 0.4133 0.9513
8 13 5 -0.0104 -0.6295
8 13 7 2.4365 0.2569
8 13 9 -0.7574 -0.3429
8 13 11 0.6775 -0.9974
8 14 0 3.6123 -0.3136
8 14 2 -0.4933 -0.5815
8 14 4 0.3444 0.2595
8 14 6 -1.3754 -1.8993
8 14 8 -0.4637 -0.0640
8 15 1 -1.1771 -0.6612
8 15 3 1.1303 -0.8255
8 15 5 -0.0802 0.9344
8 15 7 0.0199 0.8556
8 16 0 -0.5408 -0.3132
8 16 2 -0.2171 2.1288
9 0 1 1.4000 -0.2923
9 0 3 0.9048 -0.8015
9 0 5 -1.6340 -0.5971
9 0 7 0.4814 -0.7093
9 0 9 -1.6643 -0.5872
9 0 11 0.9874 -0.6319
9 0 13 0.1159 -0.5460
9 0 15 -1.1820 -0.5279
9 0 17 1.7216 -0.4794
9 1 0 -2.0989 -0.2938
9 1 2 -0.0975 0.1338
9 1 4 1.6249 0.2223
9 1 6 -0.8982 1.4733
9 1 8 -0.2844 0.7475
9 1 10 1.8947 4.9058
9 1 12 -0.3330 4.7197
9 1 14 -0.8654 1.2837
9 1 16 0.6829 0.8995
9 2 1 1.1703 2.6452
9 2 3 -1.0329 -0.2641
9 2 5 -0.9855 0.1578
9 2 7 2.5217 0.6946
9 2 9 -0.4719 0.6095
9 2 11 -0.9095 -2.2656
9 2 13 -0.0485 -1.0364
9 2 15 1.2031 -0.2503
9 2 17 0.6644 -0.6289
9 3 0 -1.0896 -0.8113
9 3 2 -2.3419 -5.5380
9 3 4 2.0968 -0.8295
9 3 6 -0.4163 0.1149
9 3 8 -1.0380 -5.8218
9 3 10 -0.4122 -1.4968
9 3 12 1.3238 1.3984
9 3 14 -1.7713 -1.5718
9 3 16 -0.1369 -0.9218
9 4 1 -0.3311 4.2323
9 4 3 3.1333 4.7074
9 4 5 -2.2533 1.3126
9 4 7 -1.9806 1.9416
9 4 9 1.5353 2.7088
9 4 11 -0.9653 -0.0308
9 4 13 0.1429 0.0754
9 4 15 1.6062 0.7107
9 4 17 0.4179 1.5583
9 5 0 1.1107 -0.5686
9 5 2 -0.1674 -1.8907
9 5 4 -0.9727 -1.3923
9 5 6 1.6812 0.7061
9 5 8 0.1723 -0.1970
9 5 10 0.2744 -0.3262
9 5 12 -0.5367 0.8372
9 5 14 -1.5707 -2.0064
9 5 16 0.5240 -1.1228
9 6 1 -0.2225 -0.8220
9 6 3 1.6642 -0.4411
9 6 5 -1.7950 -2.3150
9 6 7 0.5182 -3.5448
9 6 9 1.1712 -0.4352
9 6 11 -0.5271 -0.7951
9 6 13 1.3902 0.7668
9 6 15 -0.9037 1.4406
9 7 0 -0.2877 -0.6664
9 7 2 0.1002 1.7200
9 7 4 -0.2729 -0.7468
9 7 6 1.8287 3.6368
9 7 8 -0.7398 1.2659
9 7 10 -0.3401 0.3121
9 7 12 0.8618 -0.2223
9 7 14 0.9506 -1.6940
9 7 16 0.5797 -0.0059
9 8 1 -1.4528 -0.3718
9 8 3 0.0154 2.3374
9 8 5 -0.8763 0.6237
9 8 7 0.0732 0.0960
9 8 9 0.0641 0.0073
9 8 11 -1.5181 0.5763
9 8 13 0.0811 2.0045
9 8 15 -0.5288 1.3511
9 9 0 -0.0810 -0.5383
9 9 2 1.2448 -1.7197
9 9 4 -0.1818 -1.6330
9 9 6 0.3621 -1.8352
9 9 8 -0.7594 1.0232
9 9 10 0.4611 1.5752
9 9 12 -0.0089 -1.8552
9 9 14 -0.5462 -1.5870
9 10 1 1.0871 1.2082
9 10 3 -1.0381 0.4859
9 10 5 -1.1355 -0.8109
9 10 7 0.5714 -1.2155
9 10 9 -0.5781 -2.7767
9 10 11 0.3952 -0.5280
9 10 13 0.8959 0.2606
9 11 0 -1.2484 -0.5441
9 11 2 0.5258 -0.9720
9 11 4 1.2536 3.3092
9 11 6 0.6377 -0.0920
9 11 8 0.0997 3.2998
9 11 10 -0.5539 1.2848
9 11 12 -0.1637 -0.0545
9 12 1 -0.0592 2.3093
9 12 3 0.2567 -1.4214
9 12 5 -0.8073 1.3416
9 12 7 -0.0667 0.1759
9 12 9 0.2289 -1.6128
9 12 11 0.2707 0.4405
9 13 0 0.8662 -0.4247
9 13 2 -1.5473 -3.5791
9 13 4 0.1893 0.6752
9 13 6 0.1526 -4.0956
9 13 8 1.3506 -0.1491
9 14 1 -0.1790 2.8421
9 14 3 -0.0301 0.2220
9 14 5 0.6492 -0.3864
9 14 7 -1.8477 1.8589
9 15 0 0.6174 -0.4175
9 15 2 1.1445 0.0689
9 15 4 -0.7108 2.2620
10 0 0 -1.4273 -0.9197
10 0 2 -0.3832 -0.6290
10 0 4 3.1654 -0.7408
10 0 6 -3.2261 -0.7000
10 0 8 -0.4000 -0.6887
10 0 10 2.5328 -0.6578
10 0 12 2.3369 -0.6277
10 0 14 1.6551 -0.5568
10 0 16 0.1956 -0.5310
10 1 1 0.2619 4.1228
10 1 3 -1.8513 3.6146
10 1 5 0.7924 4.6428
10 1 7 -0.8414 4.5810
10 1 9 -0.7387 4.3767
10 1 11 -1.9055 5.6388
10 1 13 -1.5722 5.7782
10 1 15 0.2585 1.8431
10 2 0 2.4588 -0.5779
10 2 2 0.5417 -6.2095
10 2 4 -0.7138 -1.1748
10 2 6 0.1032 -4.5664
10 2 8 0.8205 -2.1505
10 2 10 1.4056 -3.0463
10 2 12 0.6930 -4.4406
10 2 14 -2.0573 -3.4990
10 2 16 -0.2380 1.1353
10 3 1 -2.2200 5.5318
10 3 3 1.3947 1.1893
10 3 5 2.1482 -1.9436
10 3 7 0.1704 1.1432
10 3 9 0.2040 -1.8938
10 3 11 -0.0489 1.8354
10 3 13 1.3692 2.1829
10 3 15 0.6316 -0.4358
10 4 0 2.5056 -0.7445
10 4 2 -0.0422 -3.2986
10 4 4 -2.0012 5.3127
10 4 6 -0.3220 -2.0914
10 4 8 0.8635 3.0973
10 4 10 -0.3348 -0.7458
10 4 12 -1.6157 -4.1680
10 4 14 -0.4025 -0.2206
10 4 16 -0.3025 0.5141
10 5 1 -1.3457 3.7086
10 5 3 0.5050 -3.8909
10 5 5 1.6379 -1.1559
10 5 7 -2.3698 3.4945
10 5 9 -0.5505 -1.0442
10 5 11 -0.3576 2.4057
10 5 13 0.6597 2.7445
10 5 15 -0.4652 0.6191
10 6 0 4.5324 -0.6532
10 6 2 0.4169 -2.3031
10 6 4 -2.7841 3.0914
10 6 6 0.7971 -4.4591
10 6 8 1.4062 -0.1031
10 6 10 0.2999 0.7468
10 6 12 -0.3107 -0.6018
10 6 14 2.8235 -0.5089
10 7 1 -3.3083 7.7818
10 7 3 1.7069 1.6672
10 7 5 0.4868 1.4404
10 7 7 -0.0754 -0.4495
10 7 9 0.0511 -0.3589
10 7 11 -0.0523 -3.0535
10 7 13 -0.9161 -1.7226
10 8 0 2.1218 -0.6203
10 8 2 0.2799 -6.1043
10 8 4 -0.9483 -1.6411
10 8 6 -0.8095 1.4246
10 8 8 -0.7543 2.4123
10 8 10 -0.0237 -0.7541
10 8 12 -1.7131 3.3014
10 8 14 0.5838 2.1475
10 9 1 -1.0893 2.3347
10 9 3 1.7413 -0.1840
10 9 5 0.0493 0.0430
10 9 7 2.1359 -3.4776
10 9 9 -0.3327 2.5787
10 9 11 1.5936 0.5559
10 9 13 0.2251 -2.3129
10 10 0 0.5431 -0.5574
10 10 2 -0.0922 1.7077
10 10 4 1.3998 0.5485
10 10 6 -2.2350 1.2170
10 10 8 0.5578 -1.2607
10 10 10 0.6073 -2.8102
10 10 12 -0.1545 0.5327
10 11 1 -0.9668 1.3599
10 11 3 -1.1903 -1.9108
10 11 5 -2.3593 2.0705
10 11 7 1.2378 -1.1383
10 11 9 -2.0064 2.4606
10 12 0 2.5867 -0.5046
10 12 2 0.7294 -1.0096
10 12 4 2.3944 -1.3295
10 12 6 1.3227 0.2437
10 12 8 -0.2516 -0.2792
10 13 1 -0.7668 2.3763
10 13 3 0.9644 1.2451
10 13 5 -1.0419 0.4456
10 13 7 0.2181 -0.7480
10 14 0 -1.6007 -0.4058
10 14 2 -1.6677 -0.9169
10 14 4 -2.1421 -0.9301
11 0 1 -2.1603 -0.1818
11 0 3 0.5153 -0.5787
11 0 5 1.2091 -0.4105
11 0 7 1.3104 -0.4962
11 0 9 -1.4204 -0.4176
11 0 11 0.0403 -0.4514
11 0 13 2.6486 -0.3926
11 0 15 5.7134 -0.3840
11 1 0 -0.4857 -0.1781
11 1 2 2.0896 1.3180
11 1 4 -2.2631 2.8097
11 1 6 0.2381 -1.2519
11 1 8 -0.4021 -1.4319
11 1 10 -0.4359 2.0832
11 1 12 1.5801 1.5628
11 1 14 -5.1952 0.3965
11 2 1 1.2248 0.2274
11 2 3 -1.7586 -2.1910
11 2 5 0.3646 0.3085
11 2 7 0.7332 3.2836
11 2 9 -1.2091 0.2980
11 2 11 -0.4152 -2.2634
11 2 13 0.3775 -0.2932
11 2 15 -0.2009 0.3415
11 3 0 -3.7880 -0.5667
11 3 2 1.9812 2.3185
11 3 4 0.5804 1.0028
11 3 6 -0.0456 -3.7991
11 3 8 1.1058 -1.4070
11 3 10 0.4532 0.2689
11 3 12 1.3563 -2.4829
11 3 14 -0.5186 -2.4149
11 4 1 1.5883 0.7516
11 4 3 -3.1414 -5.7709
11 4 5 0.3763 0.9649
11 4 7 0.3245 1.0180
11 4 9 -0.1686 -1.6990
11 4 11 -1.1177 2.4208
11 4 13 0.1952 2.4008
11 5 0 0.4001 -0.3819
11 5 2 0.8083 2.2175
11 5 4 2.4944 4.7729
11 5 6 -1.2789 -1.3386
11 5 8 -0.0385 2.8421
11 5 10 -1.4498 3.7956
11 5 12 1.1577 -1.3762
11 5 14 -0.5584 -1.4837
11 6 1 -1.4971 1.7309
11 6 3 -1.2992 -4.5109
11 6 5 0.7920 0.8771
11 6 7 -0.4455 0.8207
11 6 9 0.5782 -4.0796
11 6 11 1.0966 -0.1436
11 6 13 1.3765 0.5119
11 7 0 0.2274 -0.4612
11 7 2 0.0077 -0.1158
11 7 4 -1.4672 1.7652
11 7 6 -0.8713 -3.2651
11 7 8 0.4374 0.1622
11 7 10 0.6526 -0.8289
11 7 12 -3.8578 -1.1923
11 8 1 0.8539 0.8833
11 8 3 0.8900 -1.9552
11 8 5 1.5184 2.1268
11 8 7 0.1064 -0.2777
11 8 9 0.1293 0.6883
11 8 11 0.6537 0.8218
11 9 0 0.8454 -0.3551
11 9 2 0.4399 1.6329
11 9 4 -0.1822 0.0118
11 9 6 -0.7480 0.3138
11 9 8 -1.5655 1.7840
11 9 10 0.2517 0.3643
11 10 1 -2.1698 0.0449
11 10 3 -0.6551 -2.6211
11 10 5 1.1459 0.5039
11 10 7 0.0785 -0.7374
11 10 9 2.2205 -1.2133
11 11 0 3.8836 -0.4012
11 11 2 -0.1492 0.9089
11 11 4 -0.4833 0.3859
11 11 6 0.7424 -1.4672
11 11 8 -0.7390 -0.5190
11 12 1 -0.5835 1.4509
11 12 3 -0.5665 0.6072
11 12 5 0.0514 -0.1533
11 13 0 -0.6053 -0.2927
11 13 2 0.1775 -0.5630
12 0 0 -0.8778 -0.3432
12 0 2 -1.1297 -0.2087
12 0 4 1.7122 -0.2163
12 0 6 -0.2770 -0.2166
12 0 8 -1.2558 -0.2296
12 0 10 0.4700 -0.2638
12 0 12 1.4563 -0.2252
12 1 1 0.6082 -0.4402
12 1 3 -0.0623 1.1390
12 1 5 -1.2641 4.0509
12 1 7 1.9886 0.0097
12 1 9 -0.2863 -2.0893
12 1 11 -1.7333 -1.7233
12 1 13 0.6346 -1.9156
12 2 0 1.1201 -0.1728
12 2 2 -0.9330 0.1507
12 2 4 1.8681 -1.3749
12 2 6 -1.6281 0.1899
12 2 8 1.5867 2.7451
12 2 10 1.2564 3.1166
12 2 12 -2.0318 1.4514
12 3 1 0.2688 1.0658
12 3 3 -0.1581 -2.9316
12 3 5 -0.2298 -2.6018
12 3 7 -0.6622 -5.9726
12 3 9 -0.5800 -3.0322
12 3 11 1.1114 -1.7132
12 3 13 2.8846 -1.4368
12 4 0 0.0115 -0.2431
12 4 2 -1.1697 -0.4028
12 4 4 -0.7162 3.8573
12 4 6 -1.1741 5.0125
12 4 8 -1.4663 3.0359
12 4 10 -1.5180 1.5663
12 4 12 -1.1964 1.4859
12 5 1 -0.7231 0.7332
12 5 3 1.7111 1.9473
12 5 5 2.1711 -1.1085
12 5 7 1.2995 -1.6614
12 5 9 1.4119 0.5884
12 5 11 0.8286 1.8210
12 6 0 -0.4486 -0.1938
12 6 2 2.0178 -1.9442
12 6 4 -1.9002 -2.3917
12 6 6 -0.2961 0.1459
12 6 8 1.7217 -0.5887
12 6 10 -0.4637 -3.5633
12 6 12 1.4598 0.2893
12 7 1 -0.2792 -2.7315
12 7 3 -1.9962 1.4283
12 7 5 0.8642 0.3422
12 7 7 -1.7502 -0.6113
12 7 9 -2.1495 0.4217
12 7 11 -0.6342 1.2060
12 8 0 -1.6805 -0.2291
12 8 2 2.0481 3.9987
12 8 4 0.5409 -1.4343
12 8 6 -0.0057 0.7648
12 8 8 1.4323 1.0440
12 8 10 0.5926 0.3986
12 9 1 0.9329 -1.4245
12 9 3 -1.0501 -1.2226
12 9 5 -0.6041 1.7745
12 9 7 0.4452 -0.8994
12 9 9 -2.1996 -0.2073
12 10 0 0.6500 -0.2288
12 10 2 -0.6732 0.4450
12 10 4 -0.3585 -1.8686
12 10 6 1.5561 -0.9639
12 11 1 -2.0610 0.1214
12 11 3 1.2587 0.9337
12 11 5 -0.4893 1.3142
13 0 1 3.1207 -0.0675
13 0 3 -2.2653 -0.3014
13 0 5 1.0140 -0.1675
13 0 7 0.4395 -0.3032
13 0 9 -3.0362 -0.2045
13 0 11 1.8516 -0.2449
13 1 0 -2.1340 -0.0597
13 1 2 1.1298 -1.2107
13 1 4 1.1457 -0.3789
13 1 6 -3.5067 1.4834
13 1 8 3.9328 1.8412
13 1 10 -0.8501 -1.8068
13 2 1 -3.0153 1.5286
13 2 3 -0.0906 -1.7798
13 2 5 0.7247 -0.0295
13 2 7 -0.6659 -0.6826
13 2 9 -1.3043 -0.2825
13 2 11 2.0733 2.7950
13 3 0 3.2919 -0.2897
13 3 2 2.6836 0.4875
13 3 4 0.2751 2.6951
13 3 6 1.2123 -3.0045
13 3 8 1.3415 0.4861
13 3 10 -0.6799 -0.9283
13 4 1 -2.0506 0.5795
13 4 3 -0.7311 -0.8866
13 4 5 -1.9943 0.3416
13 4 7 -1.3146 3.7110
13 4 9 0.2110 -0.3781
13 4 11 0.0620 -0.3168
13 5 0 -0.2724 -0.1592
13 5 2 0.6923 -1.5472
13 5 4 -1.9466 2.9541
13 5 6 2.0493 -3.2821
13 5 8 -0.7694 0.0970
13 5 10 0.0044 -2.2657
13 6 1 -0.9067 1.3210
13 6 3 1.0972 -1.4264
13 6 5 1.4694 -2.3477
13 6 7 -0.7181 1.1551
13 6 9 0.7892 0.4596
13 7 0 4.3205 -0.2625
13 7 2 1.4331 -1.7391
13 7 4 0.5936 3.1348
13 7 6 0.4663 -1.5502
13 7 8 0.3007 2.1831
13 8 1 -3.1707 3.2420
13 8 3 -1.7426 0.8722
13 8 5 -1.3872 0.0372
13 8 7 -1.2085 -0.3065
13 9 0 2.1226 -0.1843
13 9 2 0.4408 -3.6243
13 9 4 0.7885 0.5583
13 10 1 -0.9511 1.5385
14 0 0 0.5605 -0.4365
14 0 2 -3.7943 -0.3138
14 0 4 -0.6933 -0.3604
14 0 6 -1.5334 -0.3475
14 0 8 -0.6285 -0.3055
14 1 1 1.6493 2.1674
14 1 3 0.6813 3.2038
14 1 5 1.2553 0.9886
14 1 7 -0.1666 0.6191
14 1 9 1.3442 0.6752
14 2 0 0.3263 -0.2635
14 2 2 -0.5427 -0.8998
14 2 4 -0.1042 -3.3479
14 2 6 0.1209 0.0616
14 2 8 -2.1311 0.0903
14 3 1 -2.2979 -1.7538
14 3 3 0.2710 -0.5040
14 3 5 1.5222 1.7959
14 3 7 1.3657 0.6437
14 4 0 4.0932 -0.3465
14 4 2 2.1441 5.3995
14 4 4 -2.7788 -0.3121
14 4 6 -0.9333 -0.2666
14 4 8 0.3051 0.5450
14 5 1 -2.2963 -2.1812
14 5 3 0.0699 -5.9953
14 5 5 1.6609 0.4755
14 5 7 -0.8888 -0.4158
14 6 0 0.6295 -0.3077
14 6 2 0.3622 4.9254
14 6 4 0.1533 1.2030
14 6 6 -0.7666 -0.2676
14 7 1 0.5224 -0.5324
14 7 3 -0.6814 -2.9768
15 0 1 -0.3592 -0.1593
15 0 3 -0.0128 -0.3744
15 0 5 1.8714 -0.2772
15 1 0 0.2379 -0.1513
15 1 2 -1.1069 1.4844
15 1 4 0.1487 1.5890
15 2 1 1.8767 -1.0143
15 2 3 -0.6303 0.9404
15 3 0 -0.6250 -0.3711
15 3 2 -1.9407 -2.4095
15 3 4 1.6298 -1.3493
15 4 1 0.6397 1.5259
0 0 0 0.0 0.0
;
_shelx_fab_checksum              80560
_olex2_submission_special_instructions 'No special instructions were received'
loop_
_space_group_symop_operation_xyz
'x, y, z'
'-x, -y, z'
'-x, y, -z'
'x, -y, -z'
'x+1/2, y+1/2, z+1/2'
'-x+1/2, -y+1/2, z+1/2'
'-x+1/2, y+1/2, -z+1/2'
'x+1/2, -y+1/2, -z+1/2'
loop_
_atom_site_label
_atom_site_type_symbol
_atom_site_fract_x
_atom_site_fract_y
_atom_site_fract_z
_atom_site_U_iso_or_equiv
_atom_site_adp_type
_atom_site_occupancy
_atom_site_site_symmetry_order
_atom_site_calc_flag
_atom_site_refinement_flags_posn
_atom_site_refinement_flags_adp
_atom_site_refinement_flags_occupancy
_atom_site_disorder_assembly
_atom_site_disorder_group
Co1 Co 0.5000 0.5000 0.5000 0.0289(2) Uani 1 4 d S T P . .
Cl1 Cl 0.70200(10) 0.5000 0.5000 0.0411(3) Uani 1 2 d S T P . .
N1 N 0.4969(4) 0.60406(19) 0.59243(15) 0.0386(6) Uani 1 1 d . . . . .
C2 C 0.5006(5) 0.89870(19) 0.92626(16) 0.0312(6) Uani 1 1 d . . . . .
C8 C 0.4974(6) 0.7252(2) 0.72153(19) 0.0374(7) Uani 1 1 d . . . . .
C5 C 0.4984(5) 0.7854(2) 0.79218(18) 0.0375(7) Uani 1 1 d . . . . .
C1 C 0.5000 0.9539(3) 1.0000 0.0309(9) Uani 1 2 d S T P . .
C9 C 0.4223(4) 0.6512(3) 0.7163(2) 0.0533(12) Uani 1 1 d . . . . .
H9 H 0.3716 0.6403 0.7565 0.064 Uiso 1 1 calc R U . . .
C7 C 0.5821(4) 0.9068(3) 0.8690(2) 0.0424(10) Uani 1 1 d . . . . .
H7 H 0.6377 0.9510 0.8741 0.051 Uiso 1 1 calc R U . . .
C11 C 0.5684(4) 0.6747(3) 0.5981(2) 0.0465(11) Uani 1 1 d . . . . .
H11 H 0.6194 0.6834 0.5578 0.056 Uiso 1 1 calc R U . . .
C12 C 0.5709(5) 0.7347(3) 0.6595(3) 0.0535(13) Uani 1 1 d . . . . .
H12 H 0.6225 0.7824 0.6597 0.064 Uiso 1 1 calc R U . . .
C6 C 0.5813(4) 0.8503(3) 0.8048(2) 0.0467(11) Uani 1 1 d . . . . .
H6 H 0.6385 0.8557 0.7683 0.056 Uiso 1 1 calc R U . . .
C3 C 0.4179(5) 0.8319(3) 0.9161(3) 0.0580(14) Uani 1 1 d . . . . .
H3 H 0.3642 0.8231 0.9548 0.070 Uiso 1 1 calc R U . . .
C10 C 0.4240(4) 0.5946(3) 0.6510(2) 0.0494(12) Uani 1 1 d . . . . .
H10 H 0.3715 0.5477 0.6478 0.059 Uiso 1 1 calc R U . . .
C4 C 0.4155(4) 0.7785(3) 0.8486(3) 0.0569(13) Uani 1 1 d . . . . .
H4 H 0.3570 0.7374 0.8412 0.068 Uiso 1 1 calc R U . . .
loop_
_atom_site_aniso_label
_atom_site_aniso_U_11
_atom_site_aniso_U_22
_atom_site_aniso_U_33
_atom_site_aniso_U_23
_atom_site_aniso_U_13
_atom_site_aniso_U_12
Co1 0.0468(5) 0.0240(4) 0.0159(4) 0.000 0.000 0.000
Cl1 0.0451(7) 0.0482(7) 0.0300(6) 0.0045(10) 0.000 0.000
N1 0.0538(17) 0.0353(13) 0.0267(13) -0.0075(11) 0.003(2) -0.001(2)
C2 0.0477(18) 0.0243(13) 0.0214(13) -0.0055(11) 0.001(2) -0.007(3)
C8 0.0477(19) 0.0318(15) 0.0326(16) -0.0092(13) 0.005(3) 0.001(3)
C5 0.0508(19) 0.0350(16) 0.0267(15) -0.0081(13) 0.005(2) -0.008(3)
C1 0.052(3) 0.0276(19) 0.0132(17) 0.000 -0.009(3) 0.000
C9 0.061(3) 0.063(3) 0.035(2) -0.022(2) 0.014(2) -0.013(2)
C7 0.052(3) 0.048(2) 0.0277(17) -0.0122(17) 0.0020(17) -0.014(2)
C11 0.060(3) 0.045(2) 0.034(2) -0.0099(18) 0.0165(19) -0.011(2)
C12 0.073(3) 0.045(2) 0.042(2) -0.019(2) 0.013(2) -0.016(2)
C6 0.046(3) 0.059(3) 0.036(2) -0.0207(19) 0.0123(19) -0.013(2)
C3 0.080(4) 0.059(3) 0.036(2) -0.021(2) 0.027(2) -0.028(3)
C10 0.057(3) 0.053(2) 0.038(2) -0.0196(19) 0.011(2) -0.017(2)
C4 0.059(3) 0.058(3) 0.054(3) -0.029(2) 0.015(2) -0.023(2)
loop_
_atom_type_symbol
_atom_type_description
_atom_type_scat_dispersion_real
_atom_type_scat_dispersion_imag
_atom_type_scat_source
C C 0.0033 0.0016 'International Tables Vol C Tables 4.2.6.8 and 6.1.1.4'
H H 0.0000 0.0000 'International Tables Vol C Tables 4.2.6.8 and 6.1.1.4'
Cl Cl 0.1484 0.1585 'International Tables Vol C Tables 4.2.6.8 and 6.1.1.4'
Co Co 0.3494 0.9721 'International Tables Vol C Tables 4.2.6.8 and 6.1.1.4'
N N 0.0061 0.0033 'International Tables Vol C Tables 4.2.6.8 and 6.1.1.4'
loop_
_geom_angle_atom_site_label_1
_geom_angle_atom_site_label_2
_geom_angle_atom_site_label_3
_geom_angle
_geom_angle_site_symmetry_1
_geom_angle_site_symmetry_3
_geom_angle_publ_flag
Cl1 Co1 Cl1 180.0 . 2_665 ?
N1 Co1 Cl1 89.03(14) . 2_665 ?
N1 Co1 Cl1 90.97(14) . . ?
N1 Co1 Cl1 90.97(14) 4_566 . ?
N1 Co1 Cl1 89.03(14) 4_566 2_665 ?
N1 Co1 Cl1 90.97(14) 2_665 2_665 ?
N1 Co1 Cl1 89.03(14) 3_656 . ?
N1 Co1 Cl1 89.03(14) 2_665 . ?
N1 Co1 Cl1 90.97(14) 3_656 2_665 ?
N1 Co1 N1 87.69(17) . 2_665 ?
N1 Co1 N1 92.34(17) . 3_656 ?
N1 Co1 N1 178.1(3) . 4_566 ?
N1 Co1 N1 92.34(17) 4_566 2_665 ?
N1 Co1 N1 87.69(17) 4_566 3_656 ?
N1 Co1 N1 178.1(3) 3_656 2_665 ?
C11 N1 Co1 124.9(3) . . ?
C10 N1 Co1 118.7(3) . . ?
C10 N1 C11 116.2(3) . . ?
C7 C2 C1 123.5(4) . . ?
C7 C2 C3 118.0(3) . . ?
C3 C2 C1 118.4(4) . . ?
C9 C8 C5 120.5(4) . . ?
C12 C8 C5 123.7(4) . . ?
C12 C8 C9 115.7(3) . . ?
C6 C5 C8 122.2(4) . . ?
C6 C5 C4 116.9(3) . . ?
C4 C5 C8 120.9(4) . . ?
C2 C1 C2 114.9(3) . 3_657 ?
C1 C1 C2 122.57(17) 2_675 . ?
C1 C1 C2 122.56(17) 2_675 3_657 ?
C8 C9 H9 120.1 . . ?
C10 C9 C8 119.8(4) . . ?
C10 C9 H9 120.1 . . ?
C2 C7 H7 119.7 . . ?
C6 C7 C2 120.5(4) . . ?
C6 C7 H7 119.7 . . ?
N1 C11 H11 118.0 . . ?
N1 C11 C12 124.1(4) . . ?
C12 C11 H11 118.0 . . ?
C8 C12 H12 119.7 . . ?
C11 C12 C8 120.7(4) . . ?
C11 C12 H12 119.7 . . ?
C5 C6 H6 118.7 . . ?
C7 C6 C5 122.6(4) . . ?
C7 C6 H6 118.7 . . ?
C2 C3 H3 119.8 . . ?
C4 C3 C2 120.4(4) . . ?
C4 C3 H3 119.8 . . ?
N1 C10 C9 123.4(4) . . ?
N1 C10 H10 118.3 . . ?
C9 C10 H10 118.3 . . ?
C5 C4 H4 119.3 . . ?
C3 C4 C5 121.4(4) . . ?
C3 C4 H4 119.3 . . ?
loop_
_geom_bond_atom_site_label_1
_geom_bond_atom_site_label_2
_geom_bond_distance
_geom_bond_site_symmetry_2
_geom_bond_publ_flag
Co1 Cl1 2.418(3) 2_665 ?
Co1 Cl1 2.418(3) . ?
Co1 N1 2.191(3) . ?
Co1 N1 2.191(3) 4_566 ?
Co1 N1 2.191(3) 3_656 ?
Co1 N1 2.191(3) 2_665 ?
N1 C11 1.343(6) . ?
N1 C10 1.335(6) . ?
C2 C1 1.496(4) . ?
C2 C7 1.386(6) . ?
C2 C3 1.399(7) . ?
C8 C5 1.492(4) . ?
C8 C9 1.407(7) . ?
C8 C12 1.384(7) . ?
C5 C6 1.388(7) . ?
C5 C4 1.387(7) . ?
C1 C2 1.496(4) 3_657 ?
C1 C1 1.344(8) 2_675 ?
C9 H9 0.9300 . ?
C9 C10 1.389(6) . ?
C7 H7 0.9300 . ?
C7 C6 1.372(5) . ?
C11 H11 0.9300 . ?
C11 C12 1.366(6) . ?
C12 H12 0.9300 . ?
C6 H6 0.9300 . ?
C3 H3 0.9300 . ?
C3 C4 1.393(6) . ?
C10 H10 0.9300 . ?
C4 H4 0.9300 . ?
loop_
_geom_torsion_atom_site_label_1
_geom_torsion_atom_site_label_2
_geom_torsion_atom_site_label_3
_geom_torsion_atom_site_label_4
_geom_torsion
_geom_torsion_site_symmetry_1
_geom_torsion_site_symmetry_2
_geom_torsion_site_symmetry_3
_geom_torsion_site_symmetry_4
_geom_torsion_publ_flag
Co1 N1 C11 C12 -174.5(4) . . . . ?
Co1 N1 C10 C9 173.4(4) . . . . ?
N1 C11 C12 C8 0.3(8) . . . . ?
C2 C7 C6 C5 2.4(7) . . . . ?
C2 C3 C4 C5 4.4(9) . . . . ?
C8 C5 C6 C7 179.0(4) . . . . ?
C8 C5 C4 C3 177.6(5) . . . . ?
C8 C9 C10 N1 2.6(8) . . . . ?
C5 C8 C9 C10 -178.6(5) . . . . ?
C5 C8 C12 C11 177.2(5) . . . . ?
C1 C2 C7 C6 176.2(4) . . . . ?
C1 C2 C3 C4 -179.7(4) . . . . ?
C9 C8 C5 C6 170.4(5) . . . . ?
C9 C8 C5 C4 -9.6(7) . . . . ?
C9 C8 C12 C11 -0.1(8) . . . . ?
C7 C2 C1 C2 -123.0(5) . . . 3_657 ?
C7 C2 C1 C1 57.0(5) . . . 2_675 ?
C7 C2 C3 C4 -2.9(8) . . . . ?
C11 N1 C10 C9 -2.3(7) . . . . ?
C12 C8 C5 C6 -6.7(7) . . . . ?
C12 C8 C5 C4 173.3(6) . . . . ?
C12 C8 C9 C10 -1.3(7) . . . . ?
C6 C5 C4 C3 -2.4(8) . . . . ?
C3 C2 C1 C2 53.6(3) . . . 3_657 ?
C3 C2 C1 C1 -126.4(3) . . . 2_675 ?
C3 C2 C7 C6 -0.4(7) . . . . ?
C10 N1 C11 C12 0.9(7) . . . . ?
C4 C5 C6 C7 -1.0(7) . . . . ?
loop_
_smtbx_masks_void_nr
_smtbx_masks_void_average_x
_smtbx_masks_void_average_y
_smtbx_masks_void_average_z
_smtbx_masks_void_volume
_smtbx_masks_void_count_electrons
_smtbx_masks_void_content
1 -0.507 0.000 0.500 746.5 46.8 '4 H2O'
2 -0.823 0.500 0.000 746.5 46.8 '4 H2O'
