#------------------------------------------------------------------------------
#$Date: 2019-11-02 05:53:32 +0200 (Sat, 02 Nov 2019) $
#$Revision: 220757 $
#$URL: file:///home/coder/svn-repositories/cod/cif/4/12/74/4127488.cif $
#------------------------------------------------------------------------------
#
# This file is available in the Crystallography Open Database (COD),
# http://www.crystallography.net/
#
# All data on this site have been placed in the public domain by the
# contributors.
#
data_4127488
loop_
_publ_author_name
'Ai, Yong'
'Chen, Xiao-Gang'
'Shi, Ping-Ping'
'Tang, Yuan-Yuan'
'Li, Peng-Fei'
'Liao, Wei-Qiang'
'Xiong, Ren-Gen'
_publ_section_title
;
 Fluorine Substitution Induced High T<sub>c</sub> of Enantiomeric
 Perovskite Ferroelectrics: ( R) - and ( S)
 -3-(Fluoropyrrolidinium)MnCl<sub>3</sub>.
;
_journal_issue                   10
_journal_name_full               'Journal of the American Chemical Society'
_journal_page_first              4474
_journal_page_last               4479
_journal_paper_doi               10.1021/jacs.9b00886
_journal_volume                  141
_journal_year                    2019
_chemical_absolute_configuration rm
_chemical_formula_moiety         'Cl3 Mn, C4 H9 F N'
_chemical_formula_sum            'C4 H9 Cl3 F Mn N'
_chemical_formula_weight         251.41
_space_group_crystal_system      monoclinic
_space_group_IT_number           4
_space_group_name_Hall           'P 2yb'
_space_group_name_H-M_alt        'P 1 21 1'
_symmetry_space_group_name_Hall  'P 2yb'
_symmetry_space_group_name_H-M   'P 1 21 1'
_atom_sites_solution_hydrogens   geom
_audit_creation_method           SHELXL-2014/7
_cell_angle_alpha                90
_cell_angle_beta                 112.474(8)
_cell_angle_gamma                90
_cell_formula_units_Z            2
_cell_length_a                   7.6220(5)
_cell_length_b                   6.4880(3)
_cell_length_c                   9.5948(7)
_cell_measurement_reflns_used    2283
_cell_measurement_temperature    298(2)
_cell_measurement_theta_max      30.5490
_cell_measurement_theta_min      3.8980
_cell_volume                     438.44(5)
_computing_structure_refinement  'SHELXL-2014/7 (Sheldrick, 2014)'
_diffrn_ambient_temperature      298(2)
_diffrn_measured_fraction_theta_full 0.999
_diffrn_measured_fraction_theta_max 0.800
_diffrn_measurement_device_type  'XtaLAB Synergy R, DW system, HyPix'
_diffrn_radiation_type           MoK\a
_diffrn_radiation_wavelength     0.71073
_diffrn_reflns_av_R_equivalents  0.0110
_diffrn_reflns_av_unetI/netI     0.0162
_diffrn_reflns_Laue_measured_fraction_full 0.999
_diffrn_reflns_Laue_measured_fraction_max 0.800
_diffrn_reflns_limit_h_max       8
_diffrn_reflns_limit_h_min       -10
_diffrn_reflns_limit_k_max       9
_diffrn_reflns_limit_k_min       -6
_diffrn_reflns_limit_l_max       12
_diffrn_reflns_limit_l_min       -13
_diffrn_reflns_number            2787
_diffrn_reflns_point_group_measured_fraction_full 0.999
_diffrn_reflns_point_group_measured_fraction_max 0.793
_diffrn_reflns_theta_full        25.242
_diffrn_reflns_theta_max         30.623
_diffrn_reflns_theta_min         2.892
_exptl_absorpt_coefficient_mu    2.361
_exptl_absorpt_correction_T_max  0.554
_exptl_absorpt_correction_T_min  0.497
_exptl_absorpt_correction_type   multi-scan
_exptl_absorpt_process_details
;
CrysAlisPro 1.171.40.14e (Rigaku Oxford Diffraction, 2018)
Empirical absorption correction using spherical harmonics,
 implemented in SCALE3 ABSPACK scaling algorithm.
;
_exptl_crystal_colour            red
_exptl_crystal_density_diffrn    1.904
_exptl_crystal_description       needle
_exptl_crystal_F_000             250
_exptl_crystal_size_max          0.3
_exptl_crystal_size_mid          0.28
_exptl_crystal_size_min          0.25
_refine_diff_density_max         1.312
_refine_diff_density_min         -0.665
_refine_diff_density_rms         0.127
_refine_ls_abs_structure_details
;
 Refined as an inversion twin.
;
_refine_ls_abs_structure_Flack   0.04(5)
_refine_ls_extinction_method     none
_refine_ls_goodness_of_fit_ref   1.158
_refine_ls_hydrogen_treatment    constr
_refine_ls_matrix_type           full
_refine_ls_number_parameters     92
_refine_ls_number_reflns         1729
_refine_ls_number_restraints     1
_refine_ls_restrained_S_all      1.157
_refine_ls_R_factor_all          0.0457
_refine_ls_R_factor_gt           0.0440
_refine_ls_shift/su_max          0.001
_refine_ls_shift/su_mean         0.000
_refine_ls_structure_factor_coef Fsqd
_refine_ls_weighting_details
'w=1/[\s^2^(Fo^2^)+(0.0819P)^2^+0.3843P] where P=(Fo^2^+2Fc^2^)/3'
_refine_ls_weighting_scheme      calc
_refine_ls_wR_factor_gt          0.1317
_refine_ls_wR_factor_ref         0.1344
_reflns_Friedel_coverage         0.838
_reflns_Friedel_fraction_full    1.000
_reflns_Friedel_fraction_max     0.785
_reflns_number_gt                1612
_reflns_number_total             2708
_reflns_threshold_expression     'I > 2\s(I)'
_cod_data_source_file            ja9b00886_si_004.cif
_cod_data_source_block           P21
_cod_depositor_comments
;
The following automatic conversions were performed:

'_exptl_absorpt_correction_type' value 'Multi-scan' changed to
'multi-scan' according to
/home/data/users/saulius/crontab/automatic-downloads/current/ACS/lib/dictionaries/cif_core.dic
dictionary named 'cif_core.dic' version 2.4.2 from 2011-04-26.

Automatic conversion script
Id: cif_fix_values 4973 2017-02-22 13:04:09Z antanas 
;
_cod_database_code               4127488
_shelx_shelxl_version_number     2014/7
_shelx_space_group_comment
;
The symmetry employed for this shelxl refinement is uniquely defined
by the following loop, which should always be used as a source of
symmetry information in preference to the above space-group names.
They are only intended as comments.
;
_shelx_res_file
;

    P21.res created by SHELXL-2014/7


TITL P21 in P2(1)
CELL 0.71073   7.6220   6.4880   9.5948  90.000 112.474  90.000
ZERR    2.00   0.0005   0.0003   0.0007   0.000   0.008   0.000
LATT -1
SYMM -X, 0.5+Y, -Z
SFAC C  H  N  F  Cl Mn
UNIT 8 18 2 2 6 2
L.S. 100
ACTA
BOND
FMAP 2
PLAN 20
CONF
TWIN
WGHT    0.081900    0.384300
BASF   0.04451
FVAR       0.69256
MOLE 1
MN1   6    0.001034   -0.001091    1.002804    11.00000    0.03491    0.01928 =
         0.04694    0.00095    0.01767   -0.00003
CL1   5    0.164422    0.245305    0.885966    11.00000    0.06491    0.02804 =
         0.07027   -0.00002    0.04742   -0.00141
CL2   5    0.121866    0.253230    1.224179    11.00000    0.06516    0.03101 =
         0.03938    0.00045    0.01250    0.00179
CL3   5   -0.279709    0.247179    0.909958    11.00000    0.03263    0.02923 =
         0.07186    0.00409    0.00904    0.00052
C1    1    0.329301    0.972080    0.639269    11.00000    0.09946    0.04611 =
         0.08208    0.01009    0.03617    0.00595
AFIX  23
H1A   2    0.423061    1.070742    0.635607    11.00000   -1.20000
H1B   2    0.217071    1.046615    0.635075    11.00000   -1.20000
AFIX   0
C2    1    0.281770    0.827504    0.514054    11.00000    0.09066    0.09495 =
         0.04811    0.00447    0.02085    0.01574
AFIX  13
H2    2    0.170777    0.874483    0.427576    11.00000   -1.20000
AFIX   0
C3    1    0.243265    0.627547    0.572605    11.00000    0.13755    0.07031 =
         0.11770   -0.04935    0.06055   -0.02573
AFIX  23
H3A   2    0.274302    0.512601    0.521532    11.00000   -1.20000
H3B   2    0.111053    0.617204    0.559891    11.00000   -1.20000
AFIX   0
C4    1    0.370620    0.631772    0.736382    11.00000    0.08656    0.06417 =
         0.13398    0.06095    0.03723    0.00502
AFIX  23
H4A   2    0.309763    0.566552    0.797147    11.00000   -1.20000
H4B   2    0.489266    0.561328    0.753273    11.00000   -1.20000
AFIX   0
F1    4    0.425340    0.799389    0.476950    11.00000    0.15043    0.25304 =
         0.11653    0.01055    0.08139    0.00757
N1    3    0.403576    0.852255    0.773435    11.00000    0.06165    0.10030 =
         0.04516   -0.00383    0.01102   -0.01867
AFIX  23
H1C   2    0.347398    0.888405    0.835787    11.00000   -1.20000
H1D   2    0.527535    0.875681    0.819648    11.00000   -1.20000
AFIX   0
HKLF 4

REM  P21 in P2(1)
REM R1 =  0.0440 for    1612 Fo > 4sig(Fo)  and  0.0457 for all    1729 data
REM     92 parameters refined using      1 restraints

END

WGHT      0.0818      0.3862

REM Highest difference peak  1.312,  deepest hole -0.665,  1-sigma level  0.127
Q1    1   0.0533  0.7427  0.5032  11.00000  0.05    1.31
Q2    1   0.0435 -0.0047  1.1066  11.00000  0.05    0.70
Q3    1  -0.0611 -0.0003  0.8885  11.00000  0.05    0.70
Q4    1  -0.3120  0.2504  0.7945  11.00000  0.05    0.65
Q5    1   0.2399  0.2440  0.9998  11.00000  0.05    0.54
Q6    1   0.0274  0.2477  1.1128  11.00000  0.05    0.48
Q7    1   0.1540  0.2515  1.3272  11.00000  0.05    0.46
Q8    1   0.1955  0.7472  0.5456  11.00000  0.05    0.41
Q9    1   0.1423  0.2401  0.7749  11.00000  0.05    0.30
Q10   1   0.2436  0.9545  0.6250  11.00000  0.05    0.29
Q11   1  -0.0222  0.7448  0.3629  11.00000  0.05    0.29
Q12   1   0.6000  0.7454  0.8585  11.00000  0.05    0.27
Q13   1  -0.2085  0.2512  1.0132  11.00000  0.05    0.26
Q14   1   0.3214  0.4969  0.9538  11.00000  0.05    0.23
Q15   1   0.0635  0.9977  0.2521  11.00000  0.05    0.21
Q16   1  -0.0559  0.7483  0.6105  11.00000  0.05    0.21
Q17   1  -0.0934  0.7598  0.5376  11.00000  0.05    0.20
Q18   1   0.3571  0.8845  0.6026  11.00000  0.05    0.19
Q19   1   0.0743  0.2502  0.8643  11.00000  0.05    0.19
Q20   1   0.6481  0.8837  0.9224  11.00000  0.05    0.19
;
_shelx_res_checksum              81140
_shelx_hkl_file
;
   0   0  -2  649.27    7.55
   0   0  -3   24.51    0.75
   0   0  -4  503.36    6.47
   0   0  -5   64.28    1.59
   0   0   5   66.41    1.41
   0   0   6    0.15    0.22
   0   0  -6    0.19    0.34
   0   0   7    2.36    0.36
   0   0  -7    2.59    0.51
   0   0  -8  206.39    3.93
   0   0   8  202.64    3.45
   0   0  -9  206.29    4.47
   0   0   9  199.88    3.52
   0   0  10   49.61    1.56
   0   0 -10   52.25    2.20
   0   0 -11    1.35    0.71
   0   0  11    0.56    0.35
   0   0  12    2.57    0.51
   0  -1   0    0.15    0.09
   0   1  -1  150.11    2.15
   0  -1  -1  150.60    1.98
   0  -1  -2  842.43    9.66
   0  -1   2  832.16    9.88
   0   1  -2  844.20    9.37
   0  -1  -3 1910.89   21.56
   0   1   3 1897.41   21.54
   0  -1   3 1932.87   21.18
   0  -1  -4  539.27    6.92
   0   1   4  550.14    6.89
   0  -1   4  542.35    6.48
   0  -1   5  167.01    2.50
   0  -1  -5  165.04    2.88
   0  -1   6  253.56    3.64
   0  -1  -6  254.56    4.15
   0   1  -6  261.78    4.52
   0   1  -6  261.41    4.25
   0   1  -7   19.90    1.18
   0  -1   7   19.41    0.75
   0  -1  -7   18.80    1.02
   0   1  -7   20.81    1.05
   0   1   8    9.51    0.70
   0   1  -8    9.19    0.92
   0  -1   8   10.07    0.59
   0   1  -8    9.36    0.82
   0  -1  -8   10.10    0.83
   0   1   9    7.82    0.68
   0  -1  -9    8.12    0.83
   0  -1   9    7.61    0.55
   0   1  -9    7.82    0.93
   0   1  10   13.73    0.88
   0  -1  10   12.87    0.73
   0   1 -11    0.37    0.69
   0  -1  11    0.19    0.30
   0   1  11    0.36    0.40
   0   1  12   11.81    0.89
   0  -2   0  868.78   10.23
   0   2   1    3.89    0.26
   0  -2   1    1.56    0.27
   0  -2   2  641.10    8.04
   0  -2  -2  640.49    7.66
   0   2   2  648.75    7.66
   0  -2   3 2009.38   23.50
   0   2  -3 2044.32   22.51
   0   2   3 2060.84   22.96
   0  -2  -3 2050.46   23.03
   0   2   4  325.38    4.49
   0   2  -4  322.42    4.00
   0  -2   4  315.21    4.82
   0  -2  -4  326.05    4.53
   0  -2  -5  686.78    8.69
   0   2   5  661.91    8.55
   0   2  -6  556.87    8.23
   0  -2  -6  605.97    7.97
   0   2  -7  340.68    5.39
   0  -2  -7  337.12    5.33
   0   2  -7  335.42    5.79
   0  -2  -8   11.60    0.89
   0   2  -8   10.85    0.99
   0   2  -8   10.56    0.89
   0   2   9    4.40    0.59
   0   2  -9    2.49    0.69
   0  -2  -9    4.11    0.71
   0   2  10    1.53    0.51
   0   2 -10    2.26    0.69
   0   2  11   30.94    1.43
   0  -3   0    0.18    0.24
   0   3   1  100.57    1.78
   0  -3   1  103.01    2.14
   0   3   2  287.42    3.99
   0  -3   2  285.50    4.43
   0  -3   3  773.01   10.04
   0  -3  -3  770.34    9.48
   0   3   3  796.99    9.46
   0  -3  -4  169.40    2.87
   0  -3   4  174.15    3.36
   0   3  -4  177.51    2.37
   0   3   4  176.18    2.88
   0   3   5   31.11    1.08
   0  -3   5   30.03    1.27
   0   3  -5   30.18    0.74
   0  -3  -5   31.22    1.10
   0   3  -5   31.40    1.33
   0  -3  -6  159.98    3.01
   0   3   6  154.64    2.94
   0   3  -7   20.22    1.24
   0  -3  -7   21.57    1.09
   0  -3  -8   -0.17    0.47
   0   3  -8    0.63    0.52
   0  -3  -9    3.11    0.63
   0   3  -9    2.26    0.69
   0   3 -10   11.75    1.18
   0   3  10   10.61    0.91
   0  -4   0 2215.77   25.72
   0   4   1 1427.65   16.52
   0  -4   1 1423.28   17.26
   0  -4  -1 1413.45   17.11
   0  -4   2  253.20    4.39
   0   4   2  254.31    3.75
   0  -4   3   68.20    1.94
   0   4   3   56.44    1.43
   0  -4  -4   44.49    1.31
   0   4  -4   47.77    0.95
   0   4   4   49.07    1.34
   0   4  -4   48.60    1.70
   0  -4   5   27.47    1.34
   0  -4  -5   27.77    1.07
   0   4  -5   28.05    0.70
   0   4   5   27.29    1.05
   0   4  -5   26.33    1.33
   0  -4   6    3.10    0.60
   0   4  -6    4.71    0.69
   0   4   6    4.89    0.54
   0  -4  -6    3.48    0.52
   0   4  -7    2.11    0.57
   0   4   7    1.51    0.43
   0  -4  -8   77.44    2.19
   0   4  -8   72.79    2.56
   0   4  -9  102.46    3.19
   0  -5   0    1.03    0.44
   0  -5  -1   21.56    1.13
   0   5   1   22.69    0.93
   0  -5   1   22.04    1.17
   0  -5  -2  164.21    3.39
   0  -5   2  163.09    3.56
   0   5   2  160.17    2.87
   0   5   3  274.44    4.19
   0  -5   3  277.96    5.01
   0  -5   4   64.39    2.12
   0   5   4   63.07    1.64
   0   5  -4   63.50    2.09
   0   5  -5    6.09    0.33
   0   5   5    6.02    0.56
   0   5  -5    7.13    0.81
   0  -5   5    7.47    0.84
   0   5  -6   86.61    2.66
   0   5   6   84.05    2.06
   0   5  -6   82.64    1.37
   0   5  -7   15.58    1.21
   0   5   7   16.85    0.96
   0  -5  -7   15.99    0.96
   0  -5  -8    1.89    0.54
   0   5  -8    0.95    0.61
   0   5  -9    2.33    0.76
   0  -6   0   35.35    1.57
   0  -6   1    6.24    0.79
   0  -6  -1    6.14    0.76
   0   6   2  184.08    3.27
   0  -6   2  186.99    4.06
   0  -6  -2  183.15    3.85
   0   6  -3  227.59    4.57
   0  -6   3  223.96    4.59
   0  -6  -3  233.56    4.51
   0   6   3  226.84    3.76
   0   6  -4  183.37    4.09
   0   6   4  183.84    3.28
   0   6  -5  134.99    3.45
   0   6  -5  132.04    2.01
   0   6   5  130.60    2.66
   0   6   6  166.74    3.16
   0   6  -6  167.41    4.00
   0   6  -6  158.48    2.20
   0   6   7   69.48    1.93
   0   6  -7   69.83    2.55
   0   7   0   -0.07    0.39
   0   7   1    5.27    0.59
   0   7   2   53.00    1.63
   0   7   3  135.91    2.76
   0   7   4   41.01    1.39
   0   7  -5    9.85    1.05
   0   7   5   11.13    0.75
   0   7   6   22.63    1.07
   0   8   0  374.69    5.83
   0   8   1  198.05    3.67
   0   8  -1  188.59    3.78
   0   8   2   25.66    1.16
   0   8   3    7.53    0.70
  -1   0  12   -0.02    0.36
  -1   0  11    0.09    0.31
   1   0 -11    0.14    0.54
  -1   0  10   35.36    1.26
   1   0 -10   38.25    1.82
  -1   0   9   53.87    1.51
   1   0  -9   55.59    1.92
   1   0  -9   57.17    2.08
   1   0  -8   40.72    1.56
  -1   0   8   40.56    1.23
   1   0  -7  115.93    2.56
   1   0  -6  391.56    5.68
   1   0  -5  911.21   11.16
   1   0  -4  531.68    6.75
  -1   0   4  530.10    6.73
  -1   0   3  120.69    1.96
   1   0  -3  119.92    1.98
   1   0  -2 1545.26   17.31
  -1   0   2 1549.01   17.27
  -1   0   1 1423.43   15.75
  -1   0   0 1138.92   12.60
   1   0   1 2019.91   22.29
   1   0   2   53.95    1.05
   1   0   3  519.75    6.40
   1   0   4  171.30    2.70
  -1   0  -5  108.65    2.23
   1   0   5  108.85    2.08
   1   0   6    8.22    0.57
  -1   0  -6    9.39    0.72
  -1   0  -7   87.41    2.23
   1   0   7   92.50    2.06
  -1   0  -8  147.45    3.23
   1   0   8  145.94    2.88
  -1   0  -9  127.83    3.53
   1   0   9  126.00    2.70
  -1   0 -10   14.01    1.24
   1   0  10   12.32    0.83
   1   0  11    2.96    0.53
  -1   1  12    0.14    0.37
  -1  -1  11    6.70    0.55
   1   1 -11    6.91    0.98
  -1   1  11    7.09    0.69
  -1   1  10    2.44    0.49
  -1  -1  10    2.19    0.35
   1   1 -10    2.07    0.67
   1   1  -9   34.07    1.64
  -1  -1   9   31.56    1.03
   1   1  -9   32.43    1.47
   1  -1  -9   33.53    1.49
   1   1  -8   55.72    1.87
  -1  -1   8   57.74    1.35
   1   1  -8   55.13    1.97
   1  -1  -8   59.19    1.88
  -1  -1   7   14.97    0.61
   1   1  -7   14.68    0.96
   1  -1  -7   14.89    0.91
   1   1  -7   14.86    0.95
   1   1  -6   34.49    1.29
   1   1  -6   31.91    1.19
  -1  -1   6   32.90    0.85
   1  -1  -6   33.05    1.23
  -1   1   6   32.15    1.17
  -1  -1   5    1.21    0.18
   1   1  -5    1.48    0.35
  -1  -1   4    9.45    0.32
   1   1  -4    9.60    0.55
   1  -1  -4   10.35    0.59
   1  -1  -3   22.84    0.77
   1   1  -3   23.36    0.74
   1  -1  -2  279.44    3.74
   1   1  -2  280.40    3.62
  -1  -1   1  188.84    2.39
   1   1  -1  181.88    2.16
  -1   1   0  179.37    2.45
  -1   1  -1  165.38    2.31
  -1  -1  -1  144.42    1.87
  -1   1  -2  544.88    6.50
  -1  -1  -2  555.49    6.48
  -1   1  -2  549.99    6.94
  -1   1  -3   63.30    1.57
   1   1   3   64.17    1.38
  -1   1  -3   66.44    1.25
   1  -1   3   64.40    1.22
  -1   1  -4   26.14    0.80
  -1  -1  -4   27.44    0.90
   1  -1   4   27.28    0.79
   1   1   4   26.11    0.91
  -1   1  -4   27.06    1.08
   1   1   5  189.60    3.27
  -1  -1  -5  187.76    3.29
   1  -1   6   48.28    1.26
  -1  -1  -6   47.10    1.46
   1   1   6   45.91    1.42
  -1  -1  -7    5.78    0.65
   1  -1   7    4.77    0.46
   1   1   7    5.65    0.57
  -1   1  -7    5.88    0.67
   1   1   8    2.28    0.45
   1  -1   8    2.19    0.36
  -1   1  -8    2.46    0.59
  -1  -1  -8    2.13    0.53
  -1   1  -9   11.19    1.12
   1  -1   9   11.24    0.72
   1   1   9   11.62    0.82
   1  -1  10    0.84    0.34
   1   1  10    0.66    0.39
  -1   1 -10    0.71    0.66
   1   1  11    3.23    0.60
   1  -1  11    3.53    0.50
  -1   2  12   23.80    1.26
   1   2 -11   41.62    2.00
  -1   2  11   41.48    1.61
   1   2 -10   19.48    1.34
  -1  -2   9   17.35    0.66
   1  -2  -9   17.57    1.12
   1   2  -8  104.88    2.78
   1  -2  -8  109.49    2.69
  -1  -2   8  103.86    1.78
   1   2  -7  193.09    3.83
  -1   2   7  196.02    3.59
   1  -2  -7  196.08    3.67
  -1  -2   7  190.64    2.69
   1   2  -6   54.22    1.69
  -1   2   6   55.25    1.58
   1  -2  -6   51.35    1.57
  -1   2   5   33.64    1.14
   1  -2  -5   36.04    1.20
   1   2  -5   32.52    1.19
   1   2  -5   32.63    1.13
  -1  -2   4  390.47    5.54
   1  -2  -4  394.57    5.48
   1   2  -4  405.08    5.61
  -1  -2   3  862.15   10.25
   1  -2  -3  849.87   10.18
  -1   2   3  834.79   10.14
   1   2  -3  831.80   10.23
  -1  -2   2 1572.00   17.99
  -1   2   2 1578.21   17.95
   1  -2  -2 1561.02   17.95
   1   2  -2 1581.60   17.98
  -1  -2   1  106.66    1.83
  -1   2   0  172.50    2.67
  -1  -2  -1 1118.45   12.37
  -1   2  -1 1127.81   13.15
   1   2   1 1097.85   12.35
   1  -2   2 1036.09   12.68
  -1  -2  -2 1046.17   11.90
   1   2   2 1059.21   11.86
  -1   2  -2 1039.18   12.63
  -1   2  -3  471.77    5.86
  -1   2  -3  466.17    6.58
   1  -2   3  476.39    6.59
  -1   2  -4  337.27    4.41
  -1   2  -4  327.61    5.16
  -1  -2  -4  333.62    4.60
  -1   2  -5  302.17    4.13
  -1  -2  -5  296.58    4.44
   1   2   6  415.90    6.09
  -1  -2  -6  412.89    5.96
  -1  -2  -7   77.34    2.07
   1   2   7   78.64    2.10
  -1  -2  -8    1.37    0.50
   1   2   8    2.31    0.49
  -1   2  -9   -0.37    0.62
   1   2   9    0.64    0.40
   1   2  10   14.94    1.02
  -1   2 -10   12.85    1.24
   1   3 -11    5.49    0.95
   1   3 -10    1.59    0.67
   1   3  -9   21.72    1.35
   1  -3  -9   22.23    1.24
  -1   3   8   61.87    1.90
   1  -3  -8   61.63    1.96
   1   3  -8   58.39    1.93
   1   3  -8   62.83    2.15
  -1   3   7    1.24    0.46
   1  -3  -7    0.56    0.47
   1   3  -7    0.96    0.52
   1   3  -7    0.76    0.44
   1  -3  -6   57.95    1.70
  -1   3   6   58.62    1.69
  -1  -3   6   57.47    1.81
   1   3  -6   57.58    1.86
  -1   3   5    1.57    0.40
   1   3  -5    1.03    0.39
  -1  -3   5    1.61    0.43
   1  -3  -5    1.32    0.37
   1   3  -4   61.44    1.71
  -1  -3   4   65.71    1.77
   1  -3  -4   62.58    1.57
  -1   3   4   64.35    1.60
   1   3  -3   34.99    1.22
  -1  -3   3   37.30    1.26
  -1  -3   2  132.42    2.53
  -1   3   2  136.63    2.40
   1   3  -2  137.92    2.54
  -1  -3   1  162.27    2.81
  -1  -3   0  170.42    2.88
  -1   3   0  171.66    2.96
   1   3   1   42.85    0.93
  -1   3  -1   51.65    1.44
   1   3   2  220.00    2.93
  -1   3  -2  216.97    3.68
  -1  -3  -3  196.75    2.97
  -1   3  -3  202.01    3.66
   1  -3   3  203.91    3.72
   1   3   4    1.43    0.29
  -1  -3  -4    0.93    0.29
   1  -3   4    0.95    0.40
  -1   3  -4    1.47    0.23
  -1   3  -5  157.49    2.49
  -1  -3  -5  158.16    2.80
   1  -3   5  150.13    3.31
  -1  -3  -6   29.94    1.13
  -1   3  -6   26.68    0.87
  -1  -3  -7    2.48    0.52
  -1  -3  -8    0.59    0.42
   1   3   8    0.65    0.45
  -1   3  -8    1.07    0.60
   1   3   9   10.63    0.90
  -1   3  -9   10.63    1.11
   1   3  10    0.50    0.47
   1   4 -10   23.35    1.53
   1   4  -9   42.49    1.93
   1  -4  -8   27.00    1.30
   1   4  -8   26.17    1.46
  -1   4   8   26.79    1.27
   1  -4  -7   28.24    1.27
  -1   4   7   27.82    1.23
   1   4  -7   27.01    1.41
   1   4  -6  146.43    3.33
  -1  -4   6  145.29    3.27
  -1   4   6  150.34    2.99
   1  -4  -6  149.17    3.03
   1   4  -5  573.26    8.28
   1  -4  -5  564.53    7.73
  -1   4   5  575.22    7.79
  -1  -4   5  572.05    8.28
  -1   4   4  257.28    4.14
   1   4  -4  257.67    3.07
   1   4  -4  263.32    4.50
  -1  -4   4  259.34    4.49
  -1   4   3   36.12    1.19
  -1  -4   3   32.42    1.30
   1   4  -3   35.36    1.33
  -1   4   2  128.44    2.53
  -1  -4   2  135.62    2.80
  -1  -4   1 1061.74   13.16
  -1  -4   0 1042.85   12.97
   1   4   1  175.82    2.59
  -1   4  -1  181.31    3.39
  -1   4  -2   24.25    1.15
   1   4   2   23.23    0.73
   1  -4   2   25.42    1.19
   1   4   3  158.23    2.49
  -1   4  -3  152.28    3.27
   1  -4   3  153.42    3.31
   1  -4   4  283.06    5.04
  -1   4  -4  270.69    3.75
   1   4   4  275.17    3.93
  -1  -4  -4  271.08    3.98
  -1   4  -5   18.24    0.67
  -1  -4  -5   16.72    0.81
   1   4   5   17.24    0.80
   1  -4   5   16.74    1.10
   1  -4   6    2.36    0.61
  -1  -4  -6    3.11    0.48
  -1   4  -6    1.66    0.28
  -1  -4  -7   35.72    1.34
   1   4   8  117.60    2.98
  -1  -4  -8  117.21    2.71
   1   4   9   72.15    2.36
  -1   4  -9   72.54    2.71
   1   5  -9   13.21    1.19
  -1   5   9   12.63    0.97
   1   5  -8   33.54    1.70
  -1   5   8   34.53    1.43
   1  -5  -8   36.82    1.53
  -1   5   7    1.21    0.48
   1  -5  -7    1.20    0.46
   1   5  -7    1.18    0.57
   1   5  -6   33.45    1.58
  -1   5   6   35.72    1.35
  -1  -5   6   33.70    1.58
  -1   5   5    8.34    0.67
   1   5  -5    8.22    0.82
  -1  -5   5    8.49    0.84
  -1   5   4   61.58    1.75
  -1  -5   4   60.85    2.02
   1   5  -4   63.83    2.04
  -1  -5   3    2.66    0.58
   1   5  -3    1.14    0.54
  -1   5   3    2.05    0.46
  -1  -5   2   47.18    1.70
  -1   5   2   47.68    1.50
  -1   5   1   43.36    1.44
  -1  -5   1   46.09    1.64
  -1  -5   0   44.91    1.60
   1   5   0   42.98    1.16
   1  -5   1   17.03    1.13
  -1  -5  -1   15.85    1.00
   1   5   2   45.24    1.15
  -1   5  -2   44.84    1.71
   1  -5   2   44.79    1.73
   1   5   3  166.27    2.66
   1  -5   3  159.02    3.59
   1  -5   4    2.98    0.64
   1   5   4    4.01    0.41
  -1   5  -5   70.39    1.45
   1   5   5   71.56    1.68
  -1   5  -6   21.33    0.75
  -1  -5  -6   20.34    0.96
  -1  -5  -7    0.98    0.43
  -1   5  -7    1.19    0.64
  -1   5  -8    0.62    0.62
  -1   6   9    4.00    0.73
  -1   6   8   38.60    1.54
   1   6  -8   41.00    1.95
   1   6  -7   63.19    2.37
  -1   6   7   66.52    2.02
  -1   6   6   17.05    1.00
   1   6  -6   17.59    1.24
  -1   6   5    2.61    0.52
   1   6  -5    1.92    0.57
   1   6  -5    2.11    0.14
   1   6  -4   67.92    2.24
  -1  -6   4   62.97    2.19
  -1   6   4   63.44    1.85
  -1  -6   3  258.67    4.94
  -1   6   3  275.41    4.51
  -1  -6   2  207.38    4.25
  -1   6   2  207.92    3.75
  -1  -6   1   29.06    1.40
  -1   6   1   26.61    1.17
  -1  -6   0   20.00    1.18
   1   6   0   21.97    0.88
  -1  -6  -1  189.40    3.98
   1   6   1  191.31    3.12
   1   6   2  263.90    3.87
  -1  -6  -2  263.42    4.84
   1  -6   2  251.24    5.02
   1   6   3  119.74    2.20
   1   6   4   46.12    1.30
   1   6   5  103.04    2.09
  -1   6  -5   99.05    1.86
  -1   6  -6  112.20    3.29
  -1   6  -6  114.39    1.99
  -1   7   8   17.02    1.06
  -1   7   7    2.39    0.59
   1   7  -6    7.69    0.94
  -1   7   6    7.15    0.73
  -1   7   5    0.46    0.44
  -1   7   4    7.73    0.73
  -1   7   3    0.75    0.46
  -1   7   2   10.01    0.81
  -1   7   1    7.99    0.74
  -1   7   0   10.97    0.87
   1   7   0   10.44    0.68
   1   7   1    3.29    0.44
   1   7   2   19.73    0.84
   1   7   3   37.52    1.12
   1   7   4   -0.10    0.30
   1   7   5   17.62    0.78
  -1   8   5   66.99    2.02
  -1   8   4   42.92    1.62
  -1   8   3    9.34    0.83
  -1   8   2   35.38    1.50
   1   8  -1  105.50    2.39
  -1   8   1  108.67    2.73
   1   8   0  118.44    2.43
  -1   8   0  112.67    2.86
   1   8   1   42.73    1.32
  -1   9   0    0.20    0.51
  -1   9  -1    0.56    0.54
  -2   0  12    1.14    0.37
   2   0 -12    1.19    0.70
   2   0 -11    2.52    0.67
  -2   0  11    2.73    0.43
  -2   0  10   36.65    1.23
   2   0 -10   41.89    1.80
   2   0  -9   48.24    1.83
   2   0  -9   45.09    1.74
   2   0  -8   26.94    1.31
   2   0  -7  225.59    4.02
   2   0  -6 1753.88   20.84
  -2   0   6 1786.42   20.74
  -2   0   5 1675.04   19.44
  -2   0   4  705.80    8.69
  -2   0   3  163.61    2.54
  -2   0   2   17.87    0.57
  -2   0   1 1257.73   14.17
  -2   0   0   11.35    0.42
   2   0   1   10.04    0.44
  -2   0  -1   16.82    0.60
   2   0   2  548.01    6.77
   2   0   3 2185.14   24.72
   2   0   4 1316.62   15.46
   2   0   5  182.60    3.14
   2   0   6   14.58    0.79
  -2   0  -6   12.22    0.82
   2   0   7   94.80    2.23
  -2   0  -7   96.95    2.81
  -2   0  -7   91.98    2.36
  -2   0  -8   72.05    2.55
   2   0   8   71.13    1.95
  -2   0  -8   67.22    2.08
   2   0   9    5.48    0.60
   2   0  10    1.39    0.45
  -2   1  12    7.25    0.70
   2  -1 -12    7.10    1.00
   2   1 -12    7.89    1.04
   2   1 -11   13.23    1.16
  -2   1  11   12.27    0.82
  -2  -1  11   12.57    0.67
   2   1 -10    1.64    0.63
  -2  -1  10    1.32    0.29
   2   1  -9  146.33    3.40
  -2  -1   9  145.85    2.48
   2  -1  -9  151.91    3.43
   2   1  -8  117.84    2.82
  -2  -1   8  116.54    2.03
   2  -1  -7    0.73    0.45
   2   1  -7    0.60    0.39
   2   1  -6   76.57    1.87
   2  -1  -6   75.74    1.94
   2  -1  -5   14.47    0.77
   2   1  -5   14.69    0.70
  -2  -1   4   98.17    1.83
   2  -1  -4   98.50    1.97
  -2   1   4   93.70    1.93
   2   1  -4   96.84    1.72
  -2  -1   3 1061.15   11.96
  -2   1   3 1047.24   12.41
  -2  -1   3 1056.22   12.15
   2   1  -3 1059.52   12.22
   2   1  -3 1050.11   11.97
   2  -1  -3 1037.51   12.42
  -2   1   2 1903.10   21.23
   2   1  -2 1832.81   21.07
   2   1  -2 1859.17   20.79
  -2  -1   2 1884.50   20.95
   2  -1  -2 1896.80   21.26
  -2  -1   2 1887.61   20.65
  -2  -1   2 1898.49   20.74
  -2   1   1   39.00    0.81
   2   1  -1   38.75    0.70
   2   1  -1   40.96    0.77
  -2  -1   1   39.69    0.77
   2  -1  -1   41.14    0.84
  -2  -1   1   39.49    0.69
  -2  -1   0 2352.88   26.10
   2  -1   0 2358.21   26.24
  -2   1   0 2352.97   26.18
  -2  -1  -1  785.84    9.36
   2  -1   1  787.14    9.55
  -2   1  -1  803.28    9.54
  -2   1  -2   54.25    1.19
   2   1   2   55.55    1.27
  -2   1  -3   19.59    0.91
  -2   1  -3   18.76    0.70
   2   1   3   20.43    0.79
  -2  -1  -4  128.65    2.34
  -2   1  -4  135.62    2.38
   2  -1   4  131.58    2.34
   2   1   4  135.74    2.53
  -2   1  -4  139.86    2.90
  -2  -1  -5    0.77    0.34
   2   1   5    1.17    0.31
   2  -1   5    1.24    0.28
  -2   1  -5    0.21    0.39
  -2   1  -6   71.32    2.29
  -2  -1  -6   71.24    1.87
   2  -1   6   75.67    1.77
   2   1   6   71.82    1.90
  -2   1  -7  128.28    3.34
  -2  -1  -7  133.51    2.93
   2  -1   7  126.37    2.57
   2   1   7  127.38    2.78
   2   1   8    0.41    0.33
  -2   1  -8    0.22    0.55
  -2  -1  -8    0.31    0.45
   2  -1   8   -0.24    0.35
   2   1   9   10.73    0.84
   2   1  10    1.31    0.47
  -2   2  12   40.18    1.60
   2   2 -12   44.33    2.06
   2   2 -11   33.21    1.72
  -2  -2  10   18.46    0.64
   2   2 -10   19.15    1.27
   2   2  -9   74.08    2.23
  -2  -2   9   70.76    1.33
  -2   2   9   71.11    2.15
   2   2  -9   73.75    2.31
   2  -2  -8  131.42    3.03
  -2  -2   8  123.63    1.88
  -2   2   8  131.65    2.92
   2   2  -8  135.72    3.00
   2   2  -8  134.98    3.05
  -2  -2   7   54.77    0.93
   2   2  -7   51.42    1.68
  -2   2   7   53.84    1.70
   2  -2  -7   56.40    1.78
   2   2  -7   59.38    1.78
   2   2  -6   57.67    1.63
   2   2  -6   57.82    1.64
   2  -2  -6   59.94    1.72
  -2  -2   6   55.94    0.82
  -2   2   6   56.76    1.63
  -2  -2   5   46.79    1.31
   2   2  -5   45.98    1.31
  -2   2   5   43.57    1.36
   2  -2  -5   44.82    1.40
   2   2  -5   45.45    1.33
   2  -2  -4  458.88    6.34
  -2  -2   4  464.74    6.14
   2   2  -4  469.09    6.10
   2   2  -4  476.55    6.18
   2   2  -3 1940.52   22.10
  -2  -2   3 1958.19   22.08
   2   2  -3 1959.30   21.95
   2  -2  -3 1948.07   22.42
  -2  -2   2 1643.41   18.46
   2  -2  -2 1645.66   18.57
   2   2  -2 1608.91   18.20
   2   2  -2 1626.62   17.94
   2   2  -1 1986.09   21.66
   2   2  -1 1974.01   21.95
  -2   2   1 1964.30   22.34
   2  -2  -1 1965.46   22.42
  -2  -2   1 1983.99   22.21
   2   2   0 1648.20   18.48
  -2   2   0 1633.96   18.80
   2  -2   0 1626.49   18.84
   2   2   1 1589.80   18.18
  -2  -2  -1 1595.87   17.43
  -2   2  -1 1598.66   18.47
   2  -2   1 1552.87   18.54
  -2  -2  -2  352.55    4.32
  -2   2  -2  354.43    5.16
  -2  -2  -3   49.00    1.09
  -2   2  -3   50.81    1.53
  -2   2  -3   51.97    1.21
   2   2   4    6.51    0.55
  -2  -2  -4    8.59    0.52
  -2   2  -4    8.01    0.71
  -2   2  -4    5.90    0.44
   2   2   5  100.05    2.30
  -2  -2  -5   95.39    2.01
  -2   2  -5   99.37    2.00
  -2   2  -5   97.69    2.57
   2   2   6  167.41    3.33
  -2   2  -6  165.63    3.75
  -2  -2  -6  163.39    3.05
   2   2   7   40.97    1.54
  -2  -2  -7   37.62    1.39
  -2   2  -7   38.07    1.77
   2   2   8    9.04    0.79
  -2  -2  -8   10.32    0.84
  -2   2  -8    9.72    1.06
   2   2   9   27.73    1.36
   2   3 -11    8.51    1.02
   2   3 -10    3.59    0.73
  -2   3   9   90.33    2.50
   2   3  -9   96.29    2.73
   2   3  -8   62.24    2.04
   2  -3  -8   62.43    2.00
  -2   3   8   61.42    1.94
   2   3  -8   61.07    1.94
  -2   3   7    7.71    0.72
   2   3  -7    6.74    0.68
   2   3  -7    6.67    0.72
   2  -3  -7    6.54    0.72
   2   3  -6   25.55    1.15
   2  -3  -6   25.94    1.15
  -2  -3   6   26.55    1.16
  -2   3   6   22.67    1.08
   2   3  -6   24.05    1.04
   2  -3  -5    9.29    0.69
  -2  -3   5    9.55    0.71
   2   3  -5    9.44    0.63
   2   3  -5    9.65    0.70
  -2   3   5   10.29    0.71
   2  -3  -4  112.95    2.36
   2   3  -4  114.59    2.10
   2   3  -4  110.97    2.34
  -2  -3   4  112.60    2.31
  -2   3   4  108.44    2.33
   2   3  -3  732.48    8.12
  -2  -3   3  726.97    9.23
   2   3  -3  721.98    8.79
   2   3  -3  739.21    9.26
  -2   3   3  739.82    9.38
   2  -3  -2  327.90    4.93
   2   3  -2  332.20    4.14
  -2  -3   1   18.95    0.79
   2  -3  -1   19.36    0.88
  -2   3   0  546.42    7.24
   2  -3   0  535.56    7.33
  -2   3  -1  479.09    6.70
  -2  -3  -2   53.07    0.96
  -2   3  -2   53.21    1.61
  -2   3  -3   12.01    0.57
  -2   3  -3   12.22    0.83
  -2  -3  -3   12.24    0.51
  -2   3  -4   38.54    1.10
  -2  -3  -4   41.57    1.08
  -2   3  -4   37.59    1.53
  -2   3  -5    1.84    0.33
  -2  -3  -5    1.16    0.36
  -2   3  -5    1.14    0.50
   2   3   5    1.56    0.42
  -2  -3  -6   56.77    1.59
   2   3   6   59.07    1.87
  -2   3  -6   57.35    1.49
  -2   3  -6   52.94    2.05
   2   3   7   64.01    2.05
  -2  -3  -7   64.13    1.84
  -2   3  -7   63.38    2.34
  -2  -3  -8    1.31    0.51
   2   3   8    1.37    0.48
   2   3   9    6.45    0.78
   2   4 -11    2.07    0.75
  -2   4  10   19.27    1.23
   2   4 -10   19.27    1.35
  -2   4   9   15.24    1.05
   2   4  -9   15.89    1.17
   2  -4  -8   14.85    1.02
   2   4  -8   16.03    1.13
  -2   4   8   16.77    1.09
   2   4  -8   15.18    1.00
  -2  -4   7  198.26    3.96
   2   4  -7  206.33    4.09
  -2   4   7  189.20    3.72
   2  -4  -7  194.29    3.86
   2   4  -7  194.72    3.67
  -2   4   6  654.42    9.08
  -2  -4   6  652.61    9.24
   2   4  -6  671.37    8.86
   2   4  -6  661.15    9.32
   2  -4  -6  679.81    9.13
  -2  -4   5  610.89    8.57
   2   4  -5  620.60    8.07
  -2   4   5  605.88    8.46
   2   4  -5  619.68    8.58
   2   4  -4  217.29    3.87
  -2  -4   4  211.09    3.86
  -2   4   4  220.68    3.84
   2  -4  -3   15.25    0.87
  -2   4   3   14.33    0.83
   2   4  -3   14.41    0.41
  -2  -4   3   15.27    0.89
   2  -4  -2   28.08    1.19
  -2  -4   2   26.84    1.12
   2  -4  -1   21.22    1.04
  -2  -4   1   20.80    0.96
   2  -4   0   28.65    1.24
  -2  -4   0   27.40    1.12
  -2   4   0   33.16    1.27
   2   4   0   32.16    0.64
  -2   4  -1   30.94    1.28
   2   4   1   31.15    0.58
  -2   4  -2  342.29    5.53
  -2   4  -3  616.87    8.83
  -2  -4  -4  490.77    6.25
  -2   4  -4  495.43    6.42
  -2   4  -4  487.81    7.58
   2  -4   5  126.04    3.25
  -2  -4  -5  131.82    2.39
  -2   4  -5  132.13    2.39
  -2   4  -5  132.02    3.29
  -2   4  -6   17.15    0.78
  -2  -4  -6   17.57    0.84
  -2   4  -6   15.95    1.19
  -2   4  -7   36.33    1.83
  -2  -4  -7   38.43    1.35
   2   4   8   32.24    1.55
  -2   5  10    1.86    0.65
   2   5 -10    1.67    0.67
  -2   5   9   41.34    1.70
   2   5  -9   42.23    1.93
   2   5  -8   29.08    1.54
  -2   5   8   30.65    1.42
   2   5  -7    0.37    0.40
  -2   5   7   -0.15    0.43
   2   5  -7    0.61    0.50
  -2  -5   7    0.31    0.50
   2   5  -6    2.20    0.43
  -2   5   6    1.97    0.50
  -2  -5   6    2.36    0.62
   2   5  -6    2.08    0.55
   2   5  -5   16.29    1.05
  -2   5   5   15.45    0.96
  -2  -5   5   14.77    1.01
  -2   5   4   77.16    2.11
   2   5  -4   86.13    2.33
   2  -5  -4   83.16    2.30
   2   5  -4   80.15    1.10
  -2  -5   4   77.72    2.25
   2  -5  -3  242.22    4.38
  -2  -5   3  229.20    4.32
  -2   5   3  232.93    4.17
  -2   5   2  183.66    3.56
  -2  -5   2  184.18    3.66
   2  -5  -2  182.77    3.74
   2  -5  -1    7.29    0.77
  -2  -5   1    7.11    0.71
   2  -5   0  229.57    4.43
  -2  -5   0  229.92    4.21
   2   5   0  236.43    3.13
  -2   5  -1  177.50    3.69
   2   5   1  177.18    2.38
   2   5   2   29.48    0.66
  -2   5  -2   28.93    1.39
  -2   5  -3   15.21    1.09
  -2   5  -4    1.84    0.56
  -2   5  -4    1.93    0.31
  -2   5  -5    0.45    0.26
  -2   5  -5    0.53    0.53
  -2   5  -6   33.31    1.74
  -2   5  -6   31.53    1.04
  -2   5  -7   23.01    0.90
   2   6  -9   30.27    1.71
  -2   6   9   28.53    1.46
   2   6  -8   34.59    1.73
  -2   6   8   31.67    1.51
  -2   6   7    9.63    0.88
   2   6  -7    9.15    0.94
   2   6  -6   11.16    0.96
   2   6  -6   10.41    0.77
  -2   6   6    9.91    0.85
  -2   6   5    4.61    0.62
  -2   6   4   75.61    2.19
   2   6  -4   76.93    1.20
  -2  -6   4   78.91    2.40
   2  -6  -3  359.95    6.13
  -2  -6   3  349.36    6.08
  -2   6   3  357.98    5.78
  -2   6   2  365.48    5.89
   2  -6  -2  377.93    6.37
  -2  -6   2  369.39    6.19
   2   6  -1  359.95    4.88
  -2   6   1  367.04    5.96
  -2  -6   1  370.40    6.10
   2  -6  -1  370.01    6.29
   2  -6   0  357.49    6.25
  -2  -6   0  361.05    6.07
   2   6   0  366.41    4.70
  -2  -6  -1  312.80    5.43
   2   6   1  299.82    3.86
   2   6   2   46.72    0.91
  -2   6  -2   44.22    1.82
  -2   6  -3    1.97    0.56
  -2   6  -4    2.50    0.37
  -2   6  -4    3.17    0.67
  -2   6  -5   30.83    1.03
  -2   6  -5   29.61    1.63
   2   6   6   35.09    1.61
  -2   6  -6   32.86    1.79
  -2   7   9   15.05    1.11
  -2   7   8   17.45    1.16
  -2   7   7    1.44    0.60
   2   7  -7    1.39    0.64
  -2   7   6    5.67    0.74
  -2   7   5    3.75    0.62
   2   7  -4   18.61    0.53
  -2   7   4   18.40    1.12
  -2   7   3   94.37    2.54
  -2   7   2   85.32    2.45
  -2   7   1    3.44    0.62
   2   7  -1    2.80    0.38
   2   7   0   97.72    1.80
   2   7   1   77.37    1.39
   2   7   2    6.55    0.32
  -2   7  -3    1.98    0.62
  -2   7  -4    8.83    0.97
  -2   8   6  119.03    3.00
  -2   8   5  128.41    3.21
  -2   8   4   33.19    1.55
  -2   8   3    0.80    0.55
  -2   8   2    5.79    0.76
  -2   8   1   16.27    1.12
  -2   8   0    5.17    0.75
  -2   9   2   31.01    1.53
  -2   9   1    0.18    0.55
  -2   9   0   34.97    1.68
   3   0 -13    4.41    0.91
  -3   0  12   10.36    0.70
   3   0 -12   12.02    1.09
   3   0 -11   75.18    2.43
   3   0 -10   36.87    1.58
   3   0  -9   11.29    0.98
   3   0  -9   10.14    0.85
  -3   0   8   10.90    0.82
   3   0  -8   11.29    0.79
  -3   0   7  211.01    3.75
  -3   0   6  454.95    6.38
  -3   0   5  435.47    5.97
  -3   0   4  119.50    2.16
   3   0  -4   90.65    1.98
  -3   0   3  639.50    7.90
   3   0  -3  639.41    7.94
  -3   0   2  285.70    3.90
  -3   0   1  221.48    2.83
  -3   0   1  225.18    3.19
  -3   0   0  309.48    4.11
  -3   0   0  300.80    4.07
  -3   0  -1  286.95    4.00
   3   0   2 1147.80   13.55
   3   0   3  895.26   10.98
  -3   0  -4  407.06    5.82
   3   0   4  418.33    5.84
   3   0   5   33.90    1.22
   3   0   6   34.42    1.29
  -3   0  -6   36.06    1.67
  -3   0  -7   14.03    1.16
  -3   0  -7   13.70    0.95
   3   0   7   13.27    0.85
   3   0   8   12.08    0.85
  -3   0  -8   13.77    1.20
   3   0   9    0.76    0.42
  -3   0  -9    0.21    0.65
   3   1 -13    0.18    0.65
   3   1 -12    4.03    0.81
   3  -1 -12    4.26    0.84
   3   1 -11   14.10    1.13
  -3  -1  11   12.51    0.64
  -3  -1  10    2.68    0.33
   3   1 -10    2.99    0.62
   3   1  -9    1.61    0.54
   3  -1  -9    1.79    0.60
   3   1  -9    0.80    0.46
   3  -1  -8   11.99    0.94
   3   1  -8   11.18    0.83
   3   1  -8   11.63    0.89
   3   1  -7    6.87    0.60
  -3   1   7    6.67    0.70
   3   1  -7    6.84    0.68
   3  -1  -7    6.30    0.68
   3   1  -6   13.84    0.70
  -3  -1   6   12.85    0.74
  -3   1   6   13.36    0.80
   3   1  -6   13.65    0.80
   3  -1  -6   14.20    0.86
  -3   1   5   47.30    1.41
   3   1  -5   51.80    1.43
  -3  -1   5   52.22    1.36
   3   1  -5   50.98    1.16
   3  -1  -5   51.85    1.51
   3   1  -4   81.85    1.38
  -3  -1   4   80.22    1.66
  -3   1   4   80.37    1.82
   3   1  -4   82.27    1.75
  -3  -1   3  196.32    2.79
  -3  -1   3  191.12    2.40
   3  -1  -3  187.44    2.56
  -3   1   3  200.48    3.13
  -3   1   2   54.38    1.32
   3  -1  -2   50.41    1.00
  -3  -1   2   51.89    0.84
  -3  -1   2   50.38    1.00
   3   1  -2   53.43    1.09
   3  -1  -1  182.62    2.61
  -3   1   1  178.48    2.56
  -3  -1   1  183.13    2.59
  -3  -1   1  177.68    2.44
   3  -1   0  269.34    3.73
  -3   1   0  266.53    3.73
  -3  -1   0  263.23    3.68
  -3   1  -1   96.24    1.94
  -3  -1  -1   92.39    1.80
   3   1   2    8.60    0.54
  -3  -1  -2    9.31    0.56
  -3   1  -2    8.77    0.53
  -3   1  -3    6.16    0.63
  -3   1  -3    6.63    0.50
  -3   1  -4    4.57    0.61
  -3   1  -4    4.68    0.47
   3   1   4    4.32    0.48
  -3   1  -5   48.56    1.85
  -3   1  -5   47.27    1.43
   3   1   5   46.64    1.51
  -3  -1  -5   45.61    1.41
  -3  -1  -6   91.45    2.18
  -3   1  -6   92.76    2.75
   3   1   6   94.23    2.31
  -3  -1  -7   11.59    0.84
   3   1   7   11.26    0.85
  -3   1  -7   11.28    1.09
  -3   1  -8    7.45    1.00
   3   1   8    6.94    0.71
   3   1   9    8.60    0.81
   3   2 -12    6.91    0.96
   3   2 -11    0.88    0.52
  -3  -2  10   15.83    0.52
  -3   2  10   16.54    1.11
   3   2 -10   17.67    1.12
  -3   2   9  106.08    2.72
  -3  -2   9  111.27    1.65
   3  -2  -9  117.39    2.96
   3   2  -9  113.03    2.83
   3   2  -9  112.14    2.74
   3  -2  -8  277.09    4.87
  -3  -2   8  266.77    3.29
   3   2  -8  276.17    4.72
   3   2  -8  271.01    4.61
  -3   2   8  274.89    4.85
   3  -2  -7   54.49    1.78
   3   2  -7   52.36    1.66
   3   2  -7   54.43    1.59
  -3  -2   7   51.66    0.80
   3   2  -6   66.59    1.74
   3   2  -6   62.61    1.61
   3  -2  -6   61.45    1.81
   3  -2  -5  146.95    2.89
   3   2  -5  140.37    2.49
  -3  -2   5  140.89    2.45
   3   2  -5  142.85    2.61
  -3  -2   4  641.68    7.81
   3   2  -4  640.59    7.79
   3   2  -4  638.90    8.00
  -3  -2   4  635.09    7.15
   3  -2  -4  613.90    8.39
  -3  -2   3  810.74    9.27
  -3  -2   3  819.77    9.61
   3  -2  -3  835.69    9.85
  -3   2   3  832.56   10.24
  -3   2   2  492.43    6.63
   3  -2  -2  497.79    6.29
  -3  -2   2  486.81    6.02
  -3  -2   2  488.39    5.88
   3   2  -2  483.42    5.85
   3   2  -1  621.74    7.41
   3  -2  -1  612.51    7.73
  -3   2   1  615.59    7.66
  -3  -2   1  611.40    6.87
   3   2   0 1069.24   12.74
  -3   2   0 1085.60   12.99
   3  -2   0 1113.23   13.09
  -3  -2  -1  467.33    5.45
   3   2   1  478.94    6.23
  -3   2  -1  478.83    6.52
  -3  -2  -2    9.71    0.41
   3  -2   2    9.52    0.70
  -3   2  -2    7.85    0.65
  -3   2  -2    7.01    0.49
  -3   2  -3    2.70    0.36
  -3   2  -3    2.27    0.49
  -3   2  -4   16.83    1.05
   3   2   4   17.71    0.91
  -3  -2  -4   15.43    0.73
  -3   2  -4   17.01    0.79
  -3   2  -5  203.74    3.46
  -3  -2  -5  200.10    3.32
   3   2   5  200.81    3.71
  -3   2  -5  192.48    4.09
  -3   2  -6   93.24    2.16
  -3  -2  -6   94.61    2.17
   3   2   6   93.25    2.41
  -3   2  -6   93.25    2.79
  -3  -2  -7   36.48    1.37
  -3   2  -7   38.85    1.86
   3   2   8   30.33    1.42
  -3  -2  -8   31.23    1.34
  -3   2  -8   29.06    1.72
   3   3 -12    4.40    0.83
  -3   3  11    8.82    0.94
   3   3 -11    7.83    0.94
  -3   3  10    0.60    0.48
   3   3 -10    0.43    0.47
   3   3  -9    7.69    0.80
  -3   3   9    7.78    0.83
  -3   3   8    1.74    0.53
   3   3  -8    2.38    0.53
   3  -3  -8    2.22    0.57
   3   3  -8    1.09    0.42
   3   3  -7   15.62    0.93
   3   3  -7   15.95    0.94
  -3   3   7   13.29    0.92
   3  -3  -7   16.82    1.04
   3  -3  -6    6.32    0.68
  -3  -3   6    6.64    0.60
  -3   3   6    7.58    0.71
   3   3  -6    7.42    0.63
   3   3  -6    7.48    0.65
  -3  -3   5   42.16    1.33
   3  -3  -5   41.04    1.44
   3   3  -5   42.68    1.26
   3   3  -5   40.01    1.30
  -3   3   5   38.72    1.41
   3   3  -4    1.88    0.31
   3   3  -4    2.29    0.34
  -3  -3   4    2.73    0.40
   3   3  -3  173.21    2.63
  -3  -3   3  178.65    2.97
   3   3  -2  134.85    2.05
  -3  -3   2  131.70    2.41
   3  -3  -2  133.27    2.62
   3   3  -2  138.51    1.96
  -3   3   1  249.89    3.98
   3  -3  -1  260.05    4.17
   3   3  -1  262.71    3.60
   3   3   0  248.94    3.66
  -3   3   0  242.90    3.99
   3  -3   0  243.86    4.08
   3  -3   1   20.62    1.03
   3   3   1   21.56    0.86
  -3   3  -1   20.41    0.98
   3  -3   2    6.67    0.68
  -3  -3  -2    6.90    0.27
   3   3   2    7.18    0.56
  -3   3  -2    6.86    0.67
  -3   3  -3    4.67    0.61
   3   3   3    5.35    0.53
   3  -3   3    5.16    0.66
  -3   3  -3    4.54    0.43
  -3  -3  -3    5.07    0.34
  -3   3  -4    3.43    0.43
  -3   3  -4    2.60    0.60
  -3  -3  -4    4.05    0.41
   3   3   5   40.21    1.52
  -3  -3  -5   37.27    1.15
  -3   3  -5   38.96    1.73
  -3   3  -5   39.67    1.27
  -3   3  -6   82.08    2.66
  -3   3  -6   87.67    2.05
  -3  -3  -6   83.00    1.96
   3   3   6   83.81    2.35
  -3  -3  -7   12.20    0.81
  -3   3  -7   13.47    1.17
   3   3   7   11.78    0.92
   3   3   8    9.35    0.89
  -3   3  -8    9.18    1.10
   3   4 -11   37.79    1.82
  -3   4  11   35.62    1.71
   3   4 -10   30.82    1.59
  -3   4  10   28.26    1.46
  -3   4   9    7.98    0.86
   3   4  -9    7.59    0.84
   3   4  -8    1.23    0.48
  -3   4   8    0.91    0.49
   3  -4  -8    2.00    0.60
   3   4  -8    1.90    0.52
  -3  -4   7   76.72    2.17
   3   4  -7   74.68    2.15
   3  -4  -7   71.11    2.18
  -3   4   7   72.54    2.20
   3   4  -7   74.19    2.06
  -3  -4   6  327.62    5.30
   3   4  -6  331.46    5.34
  -3   4   6  334.53    5.62
   3   4  -6  322.75    5.04
   3   4  -5  244.06    3.84
  -3   4   5  234.49    4.34
  -3  -4   5  240.28    4.18
   3  -4  -4   40.99    1.45
   3   4  -4   37.30    1.08
  -3  -4   4   39.26    1.38
  -3   4   4   36.38    1.46
   3   4  -3   67.15    1.16
   3  -4  -3   69.92    1.94
   3   4  -3   68.18    1.39
  -3  -4   3   63.62    1.76
  -3   4   3   66.09    1.96
  -3   4   2  310.41    5.12
   3   4  -2  323.76    4.21
  -3  -4   2  313.12    4.87
   3  -4  -2  330.44    5.21
   3   4  -2  319.96    3.95
   3   4  -1  263.53    3.78
  -3  -4   1  256.53    4.25
   3  -4  -1  264.69    4.51
  -3   4   0   36.17    1.40
   3   4   0   38.90    1.14
   3  -4   0   40.77    1.55
  -3   4  -1   75.98    2.11
   3   4   1   76.40    1.82
   3  -4   1   73.06    2.15
   3  -4   2  453.76    7.11
  -3   4  -2  447.04    6.96
   3   4   2  463.53    6.51
   3  -4   3  641.93    9.42
   3   4   3  648.62    8.80
  -3   4  -3  651.05    8.31
  -3   4  -3  638.14    9.31
  -3   4  -4  144.83    2.68
   3  -4   4  142.46    3.44
   3   4   4  146.80    3.12
  -3   4  -4  137.03    3.39
  -3  -4  -4  146.41    2.26
  -3   4  -5   14.66    0.78
  -3   4  -5   14.70    1.12
  -3  -4  -5   16.49    0.71
  -3   4  -6   10.30    0.68
  -3   4  -6   10.22    1.03
  -3  -4  -6    8.96    0.62
   3   4   7   20.64    1.25
  -3   4  -7   20.26    0.96
  -3   4  -7   20.96    1.47
  -3   5  10    1.61    0.70
   3   5 -10    2.19    0.72
  -3   5   9    3.65    0.74
   3   5  -9    3.27    0.73
  -3   5   8    0.89    0.55
   3   5  -8    1.18    0.56
  -3  -5   7    9.76    0.89
   3   5  -7   11.54    0.92
   3   5  -7   10.60    0.78
  -3   5   7   10.01    0.88
   3   5  -6    0.64    0.36
  -3   5   6    0.68    0.47
   3   5  -6    0.85    0.46
  -3  -5   6    0.69    0.47
  -3   5   5   43.33    1.67
   3  -5  -5   45.38    1.66
   3   5  -5   42.68    1.29
  -3  -5   5   42.53    1.60
   3  -5  -4    2.84    0.55
  -3  -5   4    3.24    0.57
   3   5  -4    3.15    0.38
  -3   5   4    3.79    0.62
   3   5  -3   95.70    1.78
   3  -5  -3  101.95    2.66
   3   5  -3  100.94    1.65
  -3  -5   3   97.91    2.51
  -3   5   2   40.11    1.58
   3   5  -2   39.32    1.03
  -3  -5   2   41.58    1.54
   3  -5  -2   40.38    1.62
   3   5  -2   38.87    0.85
  -3  -5   1   73.66    2.07
   3  -5  -1   76.75    2.29
   3   5  -1   75.74    1.66
  -3   5   0  131.16    3.06
  -3  -5   0  125.07    2.86
   3  -5   0  132.08    3.20
   3   5   0  131.87    2.52
  -3   5  -1   18.15    1.11
   3  -5   1   16.09    1.12
   3   5   1   18.51    0.89
   3  -5   2   16.24    1.15
  -3   5  -2   13.95    1.03
   3   5   2   15.00    0.87
   3   5   3    3.48    0.50
  -3   5  -3    4.08    0.70
   3   5   4    2.57    0.49
  -3   5  -4    2.18    0.61
  -3   5  -4    1.87    0.37
  -3   5  -5   19.19    0.88
   3   5   5   21.69    1.19
  -3   5  -5   19.86    1.35
  -3   5  -6   43.83    1.37
   3   5   6   45.15    1.82
  -3   5  -6   42.00    1.99
   3   6  -9   42.55    1.92
  -3   6   9   43.48    1.84
   3   6  -8   84.22    2.66
  -3   6   8   80.50    2.49
   3   6  -7   30.06    1.52
   3   6  -7   28.60    1.25
  -3   6   7   29.90    1.46
  -3   6   6    3.45    0.66
   3   6  -6    3.85    0.51
  -3   6   5   37.70    1.62
   3   6  -5   38.04    1.22
  -3  -6   5   36.71    1.61
   3   6  -4  166.48    2.15
   3   6  -4  160.85    2.75
  -3  -6   4  161.69    3.62
  -3   6   4  166.34    3.60
   3  -6  -3  196.57    4.15
   3   6  -3  183.69    2.83
  -3  -6   3  194.60    3.97
   3   6  -3  186.03    2.75
  -3   6   3  189.50    3.93
  -3   6   2  103.56    2.74
  -3  -6   2   99.66    2.67
   3   6  -2  100.19    1.92
   3   6  -2   99.90    1.62
   3  -6  -2  101.37    2.85
  -3  -6   1  124.58    3.01
   3  -6  -1  125.66    3.20
   3   6  -1  124.99    2.39
  -3  -6   0  233.64    4.48
   3   6   0  236.17    3.87
   3   6   1  141.35    2.88
  -3   6  -1  138.40    3.40
  -3   6  -2    6.08    0.81
   3   6   2    4.52    0.57
  -3   6  -3    4.73    0.75
   3   6   3    4.52    0.60
  -3   6  -4    8.82    0.96
   3   6   4    8.12    0.80
  -3   6  -4    8.30    0.62
  -3   6  -5   53.33    1.50
  -3   6  -5   50.46    2.18
   3   6   5   50.17    1.90
  -3   7   8    3.74    0.76
  -3   7   7    2.29    0.65
  -3   7   6    2.69    0.71
   3   7  -5    7.04    0.58
  -3   7   5    7.37    0.83
   3   7  -4    2.25    0.20
   3   7  -4    1.58    0.34
  -3   7   4    1.38    0.54
   3   7  -3   28.21    0.86
   3   7  -3   27.08    0.84
  -3   7   3   29.48    1.48
   3   7  -2   10.26    0.48
  -3   7   2   10.39    0.96
   3   7  -2    9.97    0.57
   3   7  -2   10.41    0.44
  -3   7   1   22.08    1.32
   3   7  -1   24.23    0.96
   3   7   0   43.62    1.42
   3   7   1    6.72    0.64
   3   7   2   -0.08    0.39
  -3   7  -3   -0.04    0.58
   3   7   3    0.44    0.41
   3   7   4    1.54    0.53
  -3   8   6   48.40    2.00
  -3   8   5   36.92    1.70
  -3   8   4   11.47    1.02
  -3   8   3   21.49    1.36
  -3   8   2   37.51    1.76
  -3   8   1   31.01    1.64
   3   8  -1   29.73    1.12
  -3   8   0   12.48    1.14
   3   8   0   12.28    0.79
   3   8   1   22.87    1.13
   3   8   2   80.92    2.29
   4   0 -13    2.06    0.72
   4   0 -12   52.94    2.05
   4   0 -11   92.39    2.59
   4   0 -10   93.37    2.45
   4   0  -9    6.19    0.61
  -4   0   9    6.48    0.72
  -4   0   8    1.13    0.46
   4   0  -8    0.06    0.45
   4   0  -8    0.41    0.33
   4   0  -7   11.31    0.63
  -4   0   7   12.06    0.84
   4   0  -7   11.17    0.84
   4   0  -6  131.33    2.18
  -4   0   6  133.75    2.71
   4   0  -5   60.48    1.08
  -4   0   5   65.62    1.70
   4   0  -5   63.22    1.70
   4   0  -4  313.44    4.69
  -4   0   4  324.20    4.74
   4   0  -3 1252.68   14.97
  -4   0   3 1269.88   14.88
  -4   0   2 3411.95   37.16
  -4   0   2 3406.49   38.02
  -4   0   1  964.23   11.05
  -4   0   1  946.59   11.37
  -4   0   0  116.28    2.15
  -4   0   0  112.72    2.05
  -4   0  -1   71.74    1.66
  -4   0  -1   72.30    1.71
  -4   0  -2  228.35    3.89
  -4   0  -3   89.64    2.31
  -4   0  -4    0.61    0.35
  -4   0  -4    0.57    0.50
   4   0   5    0.44    0.32
  -4   0  -5    0.29    0.46
  -4   0  -6   61.10    2.24
   4   0   6   61.14    1.86
  -4   0  -7   85.45    2.85
  -4   0  -8   16.66    1.42
   4   1 -13    0.89    0.63
   4  -1 -13    0.37    0.56
   4   1 -12    5.89    0.82
   4  -1 -12    5.62    0.83
  -4  -1  11    4.98    0.43
   4   1 -11    6.48    0.78
  -4   1  10    6.25    0.80
   4   1 -10    5.56    0.68
   4  -1  -9   26.46    1.41
  -4   1   9   24.87    1.27
   4   1  -9   27.64    1.19
  -4   1   8   82.61    2.33
   4   1  -8   83.11    2.33
   4   1  -8   83.74    1.98
   4   1  -7   11.80    0.85
  -4  -1   7   10.54    0.76
  -4   1   7   11.46    0.83
   4   1  -7   11.22    0.62
  -4   1   6  256.41    4.38
   4   1  -6  262.45    3.66
   4   1  -6  268.45    4.32
  -4  -1   6  256.25    4.15
  -4  -1   5  516.27    6.84
   4   1  -5  498.80    6.05
   4   1  -5  501.40    6.89
   4  -1  -4  206.23    2.78
  -4  -1   4  206.24    3.24
  -4   1   4  208.71    3.53
   4   1  -4  206.35    3.32
   4   1  -3   39.27    1.09
   4  -1  -3   42.59    0.85
  -4  -1   3   41.91    0.97
  -4  -1   3   38.88    1.04
  -4   1   3   40.63    1.26
  -4  -1   2    0.07    0.15
  -4  -1   2    0.10    0.18
  -4   1   2    0.11    0.27
  -4   1   2    0.24    0.15
   4  -1  -2    0.21    0.16
  -4  -1   1    6.81    0.41
  -4  -1   1    5.42    0.42
  -4   1   1    5.96    0.39
  -4  -1   0  172.04    2.83
  -4   1   0  170.05    2.82
  -4  -1  -1  460.97    6.27
  -4   1  -1  466.59    6.39
  -4   1  -2  108.66    2.46
  -4  -1  -2  111.56    2.30
   4   1   3   49.82    1.52
  -4   1  -3   51.65    1.48
   4   1   4   36.53    1.35
  -4   1  -4   40.03    1.67
  -4   1  -4   40.05    1.36
  -4   1  -5    1.83    0.46
  -4   1  -5    2.30    0.62
   4   1   5    2.11    0.45
   4   1   6    6.00    0.65
  -4  -1  -6    6.39    0.65
  -4   1  -6    5.56    0.85
   4   1   7   14.37    0.96
  -4   1  -7   14.91    1.28
  -4  -1  -7   11.75    0.86
  -4   1  -8   14.57    1.32
  -4  -1  -8   11.94    1.28
   4   1   8   13.21    0.98
   4   2 -13    9.19    1.00
   4   2 -12    0.26    0.54
  -4   2  11    1.02    0.55
   4   2 -11    1.20    0.52
   4   2 -10   10.61    0.85
  -4  -2  10   11.33    0.38
  -4  -2   9  192.20    2.48
   4   2  -9  198.79    3.98
   4   2  -9  198.64    3.71
   4   2  -8  311.22    4.86
   4   2  -8  315.54    5.21
   4  -2  -8  305.16    5.42
   4   2  -7  316.68    4.70
   4   2  -7  318.71    5.13
   4  -2  -7  316.91    5.40
   4  -2  -6  208.05    3.93
   4   2  -6  214.31    3.31
  -4   2   6  198.82    3.84
   4   2  -6  223.41    3.78
  -4  -2   6  211.21    2.65
   4  -2  -5  526.99    7.62
  -4  -2   5  537.48    6.32
   4   2  -5  549.69    6.71
  -4  -2   5  540.92    7.05
   4   2  -5  549.09    7.20
  -4   2   5  524.02    7.51
  -4  -2   4  233.66    3.23
   4  -2  -4  220.92    3.43
  -4  -2   4  236.59    3.10
   4   2  -4  221.43    3.55
  -4   2   4  237.56    4.04
  -4  -2   3    8.45    0.44
   4  -2  -3    5.63    0.48
  -4  -2   3    8.02    0.40
  -4  -2   3    8.12    0.40
   4   2  -3   10.99    0.54
  -4   2   3   11.50    0.75
  -4   2   2   61.85    1.72
  -4  -2   2   64.63    1.34
  -4  -2   2   62.81    1.23
  -4  -2   2   62.30    1.13
   4  -2  -2   63.17    1.45
   4  -2  -1   46.13    1.30
  -4   2   1   45.46    1.23
  -4  -2   1   44.51    0.81
  -4  -2   1   46.89    1.18
   4   2  -1   46.95    1.17
   4   2   0  455.07    6.04
   4  -2   0  456.89    6.28
  -4  -2   0  464.74    6.06
  -4   2   0  461.93    6.25
  -4  -2   0  444.57    5.31
   4   2   1  517.60    6.84
   4  -2   1  501.86    7.05
  -4   2  -1  503.61    7.03
  -4   2  -2  153.16    2.78
  -4   2  -2  153.20    3.13
  -4   2  -3  200.81    3.47
  -4  -2  -3  207.49    3.06
  -4   2  -3  200.91    3.93
   4   2   4  309.54    4.96
  -4  -2  -4  298.76    4.32
  -4   2  -4  299.70    4.70
  -4   2  -4  301.17    5.37
  -4  -2  -5  163.52    2.93
   4   2   5  164.56    3.42
  -4   2  -5  164.13    3.19
  -4   2  -5  167.51    3.84
  -4   2  -6   17.97    0.97
   4   2   6   18.49    1.10
  -4  -2  -6   20.11    0.97
  -4   2  -6   19.29    1.33
  -4  -2  -7    0.75    0.44
   4   2   7    0.75    0.43
  -4   2  -7    0.66    0.62
   4   3 -13    1.79    0.71
   4   3 -12    5.32    0.83
  -4   3  11    1.98    0.66
   4   3 -11    3.31    0.66
  -4   3  10    1.62    0.56
   4   3 -10    1.67    0.53
   4   3  -9   28.25    1.30
  -4   3   9   28.66    1.44
   4   3  -9   28.06    1.38
   4  -3  -8   48.78    1.85
   4   3  -8   47.47    1.59
  -4   3   8   43.91    1.73
   4   3  -8   49.55    1.72
   4  -3  -7    3.85    0.65
   4   3  -7    4.40    0.52
   4   3  -7    5.17    0.61
  -4   3   7    4.94    0.68
   4  -3  -6  184.39    3.73
  -4  -3   6  187.67    3.21
   4   3  -6  193.91    3.30
   4   3  -6  190.52    3.38
  -4  -3   5  281.82    4.24
   4  -3  -5  289.47    4.42
   4   3  -5  279.51    4.25
   4  -3  -4   79.41    1.91
   4   3  -4   80.79    1.68
  -4  -3   4   79.21    1.72
   4  -3  -3    4.97    0.54
  -4  -3   3    5.68    0.47
   4   3  -3    5.33    0.36
  -4   3   2    0.44    0.36
  -4  -3   2    0.42    0.25
   4  -3  -2    0.39    0.32
   4   3  -2    0.31    0.17
   4   3  -1   22.96    0.80
  -4   3   1   20.84    0.92
   4  -3  -1   21.59    1.00
   4  -3   0  107.38    2.49
   4   3   0  105.49    2.11
  -4   3   0  106.72    2.38
   4  -3   1  240.91    4.31
   4   3   1  245.13    3.94
  -4   3  -1  238.20    4.20
   4  -3   2   39.16    1.54
   4   3   2   40.66    1.37
  -4   3  -2   38.90    1.53
  -4  -3  -2   40.53    0.71
  -4   3  -2   41.85    1.30
  -4   3  -3   11.72    0.72
   4   3   3   11.76    0.80
  -4  -3  -3   12.47    0.49
  -4   3  -3   12.84    0.98
  -4   3  -4   26.56    1.10
  -4  -3  -4   26.33    0.85
  -4   3  -4   26.74    1.42
  -4  -3  -5    1.01    0.35
  -4   3  -5    0.81    0.39
  -4   3  -5    0.65    0.55
   4   3   6    0.03    0.39
  -4   3  -6    0.44    0.54
   4   3   7    6.43    0.75
  -4   3  -7    6.71    0.97
   4   4 -12   24.47    1.47
   4   4 -11   59.40    2.17
   4   4 -10   29.00    1.47
  -4   4  10   29.25    1.58
  -4   4   9    0.57    0.51
   4   4  -9    0.50    0.44
   4   4  -8    2.93    0.53
  -4   4   8    2.83    0.62
   4   4  -8    3.25    0.55
  -4   4   7   10.18    0.91
  -4  -4   7   11.56    0.81
   4   4  -7   12.30    0.83
   4   4  -7   10.35    0.76
  -4  -4   6   21.07    1.05
   4  -4  -6   21.87    1.11
   4   4  -6   26.09    1.13
   4   4  -6   25.41    1.03
  -4   4   6   24.77    1.27
   4  -4  -5   41.85    1.46
   4   4  -5   36.66    1.18
  -4   4   5   37.67    1.58
  -4  -4   5   37.82    1.33
   4   4  -4  215.81    3.24
  -4  -4   4  208.65    3.66
  -4   4   4  213.31    4.15
   4  -4  -3  751.54   10.08
  -4  -4   3  743.80    9.68
   4   4  -3  756.75    8.83
   4   4  -2  903.88   10.79
  -4  -4   2  891.83   11.33
   4  -4  -2  927.02   11.82
  -4   4   1  495.58    7.08
  -4  -4   1  486.32    6.87
   4   4  -1  495.82    6.49
   4  -4  -1  493.84    7.32
  -4   4   0   89.41    2.34
   4   4   0   89.41    1.98
   4  -4   0   90.99    2.49
   4  -4   1   67.49    2.17
  -4   4  -1   68.00    2.06
   4   4   1   67.51    1.77
   4  -4   2   55.16    1.98
  -4   4  -2   51.58    1.88
   4   4   2   52.85    1.63
   4  -4   3   26.03    1.41
  -4   4  -3   28.72    1.45
   4   4   3   30.22    1.28
  -4   4  -3   29.21    1.13
  -4   4  -4    1.70    0.39
  -4   4  -4    1.73    0.59
   4   4   4    2.38    0.48
  -4  -4  -4    2.12    0.24
  -4   4  -5    1.70    0.62
  -4   4  -5    1.18    0.39
   4   4   5    1.79    0.49
  -4   4  -6   36.57    1.88
   4   5 -11    3.14    0.73
   4   5 -10    2.02    0.68
   4   5  -9   21.09    1.26
  -4   5   9   19.63    1.26
   4   5  -8   35.44    1.55
  -4  -5   8   32.10    1.47
   4   5  -8   30.21    1.33
  -4   5   8   32.40    1.58
   4   5  -7    0.60    0.37
  -4   5   7    0.92    0.54
   4   5  -7    1.17    0.46
   4  -5  -7    0.58    0.47
  -4  -5   7    1.26    0.50
  -4  -5   6   79.07    2.23
   4  -5  -6   79.94    2.32
  -4   5   6   72.96    2.32
   4   5  -6   74.64    1.86
   4  -5  -5  128.54    3.00
   4   5  -5  118.12    2.29
  -4   5   5  123.98    3.07
  -4  -5   5  120.68    2.79
   4  -5  -4   44.53    1.72
   4   5  -4   45.90    1.17
  -4  -5   4   43.38    1.60
  -4   5   3    5.07    0.69
   4   5  -3    4.54    0.33
   4  -5  -3    5.43    0.69
  -4  -5   3    5.04    0.61
   4   5  -3    5.48    0.32
  -4   5   2    0.10    0.41
   4   5  -2    0.35    0.21
  -4  -5   2    0.51    0.40
   4  -5  -2    0.57    0.47
  -4  -5   1    8.20    0.72
   4   5  -1    7.58    0.53
   4  -5  -1    7.81    0.80
  -4  -5   0   71.99    2.06
  -4   5   0   76.01    2.26
   4   5   0   75.53    1.83
   4  -5   0   74.97    2.35
   4  -5   1  103.85    2.91
  -4   5  -1   98.78    2.70
   4   5   1  102.08    2.33
  -4   5  -2   13.52    1.04
   4   5   2   13.92    0.88
   4   5   3    2.29    0.47
  -4   5  -3    1.89    0.61
  -4   5  -3    1.85    0.40
  -4   5  -4   16.78    0.89
  -4   5  -4   16.88    1.27
   4   5   4   17.41    1.06
   4   5   5    0.98    0.46
  -4   5  -5    1.84    0.68
   4   6 -10   10.10    1.02
   4   6  -9   52.09    2.02
  -4   6   8   98.80    2.88
   4   6  -7   79.12    2.04
  -4   6   7   86.23    2.68
   4   6  -6   89.69    2.05
  -4   6   6   90.68    2.69
   4   6  -5  100.66    2.07
  -4  -6   5  106.29    2.74
  -4   6   5  101.40    2.85
   4   6  -4   58.80    1.35
  -4   6   4   60.30    2.17
   4   6  -3    5.28    0.39
   4   6  -3    5.19    0.30
  -4   6   3    5.83    0.79
  -4   6   2    6.20    0.81
  -4  -6   2    5.77    0.73
   4   6  -2    5.85    0.45
  -4  -6   1   14.81    1.02
   4   6  -1   17.08    0.80
  -4  -6   0  110.58    2.83
   4   6   0  113.47    2.42
   4   6   1   96.83    2.33
  -4   6  -1  100.56    2.86
   4   6   2   62.60    1.93
  -4   6  -2   64.73    2.31
   4   6   3   66.02    2.05
  -4   6  -3   64.87    2.39
   4   6   4   98.69    2.68
  -4   6  -4   96.12    3.03
  -4   7   7    0.85    0.64
  -4   7   6   34.07    1.67
  -4   7   5   67.76    2.39
  -4   7   4   20.06    1.32
   4   7  -3    2.34    0.30
  -4   7   3    1.86    0.61
  -4   7   2    1.59    0.61
   4   7  -2    1.00    0.28
  -4   7   1    1.68    0.61
   4   7  -1    1.99    0.39
   4   7   0   25.95    1.11
   4   7   1   52.56    1.70
   4   7   2   11.70    0.89
   4   7   3    5.71    0.70
   4   8  -1   77.78    1.89
   4   8   0   15.36    0.89
   4   8   1   11.38    0.84
   5   0 -13    2.80    0.68
   5   0 -12   25.22    1.32
   5   0 -11   57.15    1.88
   5   0 -10   24.53    1.11
  -5   0  10   21.69    1.25
   5   0  -9   49.92    1.45
   5   0  -9   49.16    1.87
   5   0  -8   63.23    1.50
  -5   0   8   59.04    1.90
   5   0  -8   61.34    2.01
   5   0  -7  109.52    1.86
  -5   0   7  103.08    2.50
   5   0  -7  110.61    2.67
  -5   0   6   24.68    1.11
   5   0  -6   25.56    0.55
   5   0  -6   25.50    1.16
   5   0  -5   60.06    1.74
  -5   0   5   59.38    1.66
  -5   0   4  541.87    7.29
  -5   0   3  920.45   11.34
  -5   0   2  725.17    8.24
  -5   0   2  695.33    9.09
  -5   0   1  290.07    4.33
  -5   0   1  284.50    3.99
  -5   0   0   46.12    1.29
  -5   0   0   45.25    1.34
  -5   0  -1   39.27    1.33
  -5   0  -1   39.63    1.29
  -5   0  -2   17.02    0.89
  -5   0  -2   17.11    0.96
  -5   0  -3    4.27    0.63
  -5   0  -4    7.37    0.69
  -5   0  -4    7.01    0.81
  -5   0  -5   80.78    2.63
  -5   0  -6  102.79    3.15
  -5   0  -7   56.95    2.42
   5   1 -13    0.17    0.52
   5  -1 -13    0.52    0.57
   5   1 -12    0.59    0.49
   5  -1 -12    0.65    0.50
   5  -1 -11   14.72    1.00
  -5   1  11   11.74    1.02
   5   1 -11   12.15    0.87
  -5   1  10    0.10    0.46
   5   1 -10    0.05    0.34
  -5   1   9   17.36    1.13
   5   1  -9   17.73    1.16
   5   1  -9   18.03    0.86
  -5  -1   8   51.01    1.70
  -5   1   8   49.35    1.77
   5   1  -8   54.68    1.37
   5   1  -8   56.11    1.90
  -5  -1   7   11.79    0.81
   5   1  -7   12.07    0.53
  -5   1   7   11.32    0.85
   5   1  -7   11.50    0.87
   5  -1  -7   12.89    0.95
   5  -1  -6   35.72    1.44
   5   1  -6   34.95    0.67
  -5  -1   6   36.46    1.30
  -5   1   6   36.15    1.39
   5   1  -6   34.18    1.32
   5  -1  -5   77.76    2.10
  -5  -1   5   87.70    1.94
  -5   1   5   96.40    2.25
   5   1  -5   89.02    2.08
   5   1  -4    6.84    0.60
  -5  -1   4    8.65    0.57
  -5   1   4    8.69    0.69
   5  -1  -4    5.93    0.28
  -5  -1   3   26.18    0.90
  -5   1   3   24.92    1.07
  -5  -1   3   24.99    0.84
  -5   1   2   29.13    1.16
  -5  -1   2   30.98    0.98
  -5   1   2   28.00    0.78
  -5  -1   2   29.88    0.93
  -5  -1   1   32.26    0.96
  -5  -1   1   32.92    1.07
  -5   1   1   33.14    0.98
  -5   1   0  271.62    4.17
  -5   1   0  267.68    4.23
  -5  -1  -1   44.87    1.40
  -5   1  -1   44.63    1.45
  -5   1  -2    3.97    0.60
  -5  -1  -2    3.76    0.52
  -5   1  -3  102.87    2.68
   5   1   3   99.16    2.39
  -5   1  -3   97.51    2.32
  -5   1  -4   33.82    1.60
  -5   1  -4   30.89    1.28
   5   1   4   30.41    1.31
  -5   1  -5    6.37    0.86
   5   1   5    5.57    0.65
  -5  -1  -6    1.82    0.49
   5   1   6    2.33    0.53
  -5   1  -6    2.57    0.77
  -5  -1  -6    2.26    0.72
   5   1   7    3.08    0.58
  -5   1  -7    3.54    0.85
  -5  -1  -7    3.47    0.86
   5  -2 -13    9.38    1.00
   5   2 -12    3.31    0.66
   5   2 -11    0.77    0.48
   5   2 -10   29.01    1.23
   5   2  -9   57.69    1.62
  -5   2   9   52.50    1.96
   5   2  -9   58.14    1.98
   5  -2  -8   59.89    2.07
   5   2  -8   61.99    1.53
  -5   2   8   57.27    1.97
   5   2  -8   61.29    1.96
   5   2  -7   96.10    1.83
  -5   2   7   91.14    2.46
   5   2  -7   98.39    2.41
  -5  -2   7   92.45    1.48
  -5  -2   6  261.92    3.49
   5  -2  -6  271.38    3.90
  -5  -2   6  278.84    4.25
  -5   2   6  258.39    4.68
   5   2  -6  275.23    4.43
  -5  -2   5  304.53    4.01
   5  -2  -5  300.88    4.24
  -5  -2   5  318.26    4.48
  -5   2   5  309.58    5.15
   5   2  -5  288.75    4.56
   5   2  -4  124.14    2.27
  -5  -2   4  116.20    1.96
  -5  -2   4  126.71    2.15
   5  -2  -4  104.24    2.01
  -5   2   4  125.49    2.74
  -5  -2   3    4.46    0.30
  -5  -2   3    4.30    0.36
  -5  -2   3    3.59    0.34
   5  -2  -3    4.16    0.40
  -5   2   2    9.13    0.74
   5  -2  -2    6.18    0.51
  -5  -2   2    6.42    0.47
  -5   2   2    8.74    0.52
  -5  -2   2    5.21    0.35
   5  -2  -1  268.94    4.13
  -5   2   1  273.71    4.12
  -5  -2   1  276.17    4.12
  -5  -2   1  266.90    3.53
  -5  -2   0  389.02    5.51
  -5   2   0  378.06    5.60
  -5  -2   0  381.50    4.81
  -5   2  -1  285.03    4.69
   5   2   1  289.39    4.53
  -5   2  -1  279.34    4.47
  -5   2  -2  213.74    3.74
  -5   2  -2  208.10    4.01
   5   2   2  217.45    3.83
  -5  -2  -3  209.43    3.20
  -5   2  -3  209.52    3.77
  -5   2  -3  217.38    4.24
  -5  -2  -4  129.53    2.38
  -5   2  -4  127.22    3.24
  -5   2  -4  123.30    2.76
   5   2   5   10.55    0.84
  -5  -2  -5    9.92    0.68
  -5   2  -5    9.47    0.97
  -5   2  -6    2.84    0.76
   5   2   6    2.26    0.50
   5   3 -12    1.42    0.56
   5   3 -11    7.07    0.75
  -5   3  10    2.21    0.62
   5   3 -10    2.10    0.50
   5   3  -9   11.32    0.77
   5   3  -9   12.97    0.99
   5   3  -8   39.99    1.31
   5   3  -8   39.84    1.54
   5   3  -7    2.63    0.49
   5  -3  -7    2.59    0.64
   5   3  -7    2.54    0.38
  -5  -3   6   50.82    1.32
   5  -3  -6   51.14    1.48
   5   3  -6   48.42    1.49
  -5  -3   5   68.54    1.53
   5  -3  -5   66.43    1.73
   5   3  -5   65.69    1.64
   5  -3  -4    6.08    0.60
  -5  -3   4    7.32    0.49
  -5   3   4    7.66    0.77
   5   3  -4    6.70    0.51
  -5   3   3    2.64    0.55
  -5  -3   3    3.16    0.38
   5  -3  -3    2.93    0.46
  -5   3   2    1.42    0.48
  -5  -3   2    1.51    0.31
   5  -3  -2    1.24    0.42
   5  -3  -1   27.83    1.18
  -5   3   1   27.95    1.13
   5   3  -1   27.58    1.00
   5  -3   0  172.98    3.41
  -5   3   0  165.83    3.29
   5   3   0  169.14    3.08
   5   3   1   71.27    1.87
   5  -3   1   69.52    2.07
  -5   3  -1   69.24    2.04
   5   3   2    8.59    0.70
  -5   3  -2    9.18    0.84
  -5  -3  -2    9.09    0.32
  -5   3  -2    8.66    0.68
   5   3   3   83.65    2.26
  -5   3  -3   85.52    2.15
  -5  -3  -3   82.03    1.47
  -5   3  -3   82.65    2.52
  -5  -3  -4   23.54    0.80
  -5   3  -4   21.54    1.33
  -5   3  -5    1.10    0.60
   5   3   6    1.57    0.51
  -5   3  -6    1.35    0.72
   5   4 -11   31.27    1.46
   5   4 -10   23.69    1.21
  -5   4  10   21.81    1.39
   5   4  -9   14.32    0.91
  -5   4   9   13.23    1.06
   5   4  -8   31.39    1.24
  -5   4   8   27.91    1.47
   5   4  -8   30.24    1.34
   5  -4  -7   71.49    2.02
  -5  -4   7   66.73    1.81
   5   4  -7   67.75    1.93
  -5   4   7   63.74    2.21
  -5  -4   6   38.31    1.30
   5  -4  -6   37.77    1.43
   5   4  -6   33.99    1.21
   5  -4  -5   20.91    1.05
   5   4  -5   20.04    0.84
  -5  -4   5   18.56    0.89
  -5  -4   4  158.43    2.98
   5   4  -4  164.54    2.57
  -5  -4   3  567.40    7.68
   5  -4  -3  588.32    8.19
  -5   4   2  471.99    7.54
  -5  -4   2  482.77    6.68
   5   4  -2  479.46    6.36
   5   4  -1   94.76    2.04
  -5   4   1   98.99    2.39
   5  -4  -1   91.67    2.49
   5  -4   0    6.82    0.80
   5   4   0    8.32    0.62
  -5   4   0    9.16    0.79
   5   4   1   19.87    1.00
  -5   4  -1   20.02    1.16
   5  -4   2   35.72    1.64
   5   4   2   37.06    1.41
  -5   4  -2   36.06    1.63
  -5   4  -2   36.65    1.35
   5   4   3    0.32    0.37
  -5   4  -3    0.19    0.49
   5   4   4    4.05    0.61
  -5   4  -4    3.39    0.74
   5   4   5   31.12    1.47
  -5   4  -5   29.85    1.70
   5   5 -10    1.16    0.54
   5   5  -9    7.85    0.78
  -5   5   9    7.61    0.92
  -5   5   8   21.96    1.35
   5   5  -8   23.23    1.15
   5   5  -7    1.70    0.46
  -5   5   7    2.14    0.59
   5  -5  -7    0.99    0.49
  -5  -5   7    1.72    0.51
  -5  -5   6   44.05    1.57
   5  -5  -6   43.01    1.67
   5   5  -6   42.92    1.34
  -5   5   6   39.67    1.77
   5  -5  -5   26.59    1.37
   5   5  -5   27.14    0.94
  -5  -5   5   24.44    1.16
  -5   5   5   28.87    1.53
   5  -5  -4    4.13    0.68
  -5  -5   4    4.02    0.58
   5   5  -4    4.42    0.33
  -5   5   4    4.94    0.75
  -5   5   3    2.40    0.60
  -5  -5   3    2.40    0.49
   5  -5  -3    3.01    0.63
  -5  -5   2    0.25    0.38
   5  -5  -2    1.00    0.53
   5   5  -2    0.24    0.23
   5   5  -1   14.42    0.76
   5  -5  -1   15.85    1.11
   5  -5   0   74.39    2.41
   5   5   0   72.47    1.86
  -5   5  -1   56.72    2.04
   5   5   1   58.84    1.75
  -5   5  -2    6.67    0.84
   5   5   2    6.14    0.65
  -5   5  -3   40.83    1.87
   5   5   3   40.21    1.60
   5   5   4   19.53    1.17
  -5   5  -4   19.07    1.37
  -5   6   7   29.78    1.61
   5   6  -6   68.92    1.70
  -5   6   6   67.35    2.42
   5   6  -5  100.55    1.89
  -5  -6   5  101.05    2.64
  -5   6   5  100.09    2.95
  -5  -6   4   34.01    1.51
  -5   6   4   33.72    1.69
  -5   6   3    0.41    0.49
  -5  -6   3   -0.06    0.45
   5   6  -3    0.92    0.24
  -5   6   2    1.80    0.66
  -5  -6   2    0.61    0.45
   5   6  -2    0.93    0.27
   5   6  -1   66.56    1.72
  -5  -6   1   63.75    2.06
   5   6   0  131.44    2.75
  -5   6  -1   88.16    2.70
   5   6   1   86.41    2.24
  -5   6  -2   61.62    2.30
   5   6   2   63.34    1.97
   5   6   3   66.92    2.11
  -5   7   5   10.87    1.11
  -5   7   4    2.47    0.78
  -5   7   3    0.32    0.60
   5   7  -3    0.40    0.22
   5   7  -2    0.60    0.28
  -5   7   2    0.46    0.60
  -5   7   1    9.39    1.05
   5   7  -1   10.90    0.70
   5   7   0   30.79    1.23
   5   7   1   16.22    0.97
   5   7   2    0.39    0.42
   6   0 -12    7.68    0.72
  -6   0  11   18.13    1.20
   6   0 -11   19.43    0.95
  -6   0  10   30.57    1.46
   6   0 -10   30.81    1.06
  -6   0   9  120.97    2.95
   6   0  -9  115.50    2.05
  -6   0   8  282.37    4.95
   6   0  -8  281.94    3.57
   6   0  -7  267.88    4.74
  -6   0   7  260.27    4.59
   6   0  -6   48.35    1.75
  -6   0   6   52.57    1.68
  -6   0   5    4.91    0.61
  -6   0   4   10.94    0.75
  -6   0   3  156.65    2.99
  -6   0   2   15.79    0.54
  -6   0   2   15.96    0.79
  -6   0   1   24.88    1.06
  -6   0   1   26.07    1.05
  -6   0   1   27.40    0.90
  -6   0   0   84.31    1.96
  -6   0   0   83.31    2.05
  -6   0  -1  357.30    5.51
  -6   0  -1  341.75    5.37
  -6   0  -2  159.97    3.27
  -6   0  -2  168.46    3.47
  -6   0  -3   65.84    2.19
  -6   0  -4   23.75    1.42
  -6   0  -5   60.99    2.38
  -6   0  -6   31.70    1.83
   6  -1 -12    8.42    0.78
   6  -1 -11   30.69    1.23
  -6   1  11   27.59    1.48
   6   1 -11   29.30    1.14
   6  -1 -10   29.31    1.08
  -6   1  10   27.27    1.43
   6   1 -10   28.98    1.03
  -6  -1   9    3.44    0.62
  -6   1   9    3.99    0.68
   6  -1  -9    3.77    0.41
   6   1  -9    3.32    0.37
   6  -1  -8   15.98    1.10
   6  -1  -8   14.76    0.61
   6   1  -8   14.94    0.44
  -6  -1   8   14.63    0.96
  -6   1   8   13.83    1.00
   6   1  -8   16.00    1.07
   6  -1  -7   31.31    1.46
   6  -1  -7   29.66    0.69
   6  -1  -7   31.44    0.70
  -6  -1   7   31.32    1.31
  -6   1   7   27.52    1.32
   6   1  -7   31.51    1.37
   6   1  -6   20.57    1.06
  -6  -1   6   20.18    0.99
  -6   1   6   20.99    1.17
   6   1  -5  106.18    2.41
  -6  -1   5  107.15    2.31
  -6   1   5  111.48    2.64
  -6  -1   4   79.43    1.86
  -6   1   4   79.42    2.13
  -6  -1   4   79.27    1.75
  -6  -1   3   13.01    0.68
  -6  -1   3   12.44    0.70
  -6   1   3   12.74    0.87
  -6   1   2  139.76    2.96
  -6  -1   2  142.47    2.12
  -6  -1   2  138.98    2.63
  -6   1   2  137.11    2.25
  -6  -1   2  132.79    2.49
  -6  -1   1   60.31    1.53
  -6  -1   1   56.03    1.39
  -6   1   1   56.25    1.44
  -6  -1   1   59.72    1.64
  -6   1   1   57.21    1.65
  -6  -1   0    1.76    0.41
  -6  -1   0    1.44    0.44
  -6   1   0    1.21    0.41
  -6  -1   0    0.49    0.34
  -6   1   0    1.33    0.41
  -6  -1  -1    5.72    0.62
  -6   1  -1    5.25    0.60
  -6   1  -1    5.00    0.61
  -6  -1  -2   33.56    1.44
  -6  -1  -2   32.69    1.35
  -6   1  -2   34.02    1.45
  -6   1  -3    3.47    0.65
  -6  -1  -3    3.72    0.68
  -6  -1  -4   10.30    0.98
  -6   1  -4    9.16    0.96
  -6   1  -5   20.53    1.43
  -6  -1  -5   19.51    1.40
  -6   1  -6    0.79    0.68
  -6  -1  -6    0.63    0.67
   6   2 -11   15.07    0.86
  -6   2  11   15.10    1.19
   6   2 -10   13.41    0.73
  -6   2  10   12.10    1.04
  -6   2   9    0.78    0.53
   6   2  -9    1.32    0.54
   6   2  -9    0.97    0.28
   6  -2  -8    4.59    0.43
  -6   2   8    5.01    0.73
   6   2  -8    5.10    0.66
  -6  -2   8    4.62    0.32
  -6  -2   7    2.64    0.28
  -6  -2   7    3.13    0.49
  -6   2   7    1.82    0.55
   6   2  -7    1.24    0.45
   6  -2  -7    2.43    0.34
  -6  -2   6  176.47    2.71
  -6  -2   6  170.99    3.09
   6  -2  -6  175.84    2.71
   6   2  -6  175.95    3.34
   6   2  -5  363.24    5.40
  -6  -2   5  369.60    4.93
   6  -2  -5  356.73    4.80
  -6   2   5  357.20    5.95
   6  -2  -4  326.18    4.39
  -6  -2   4  317.00    4.54
  -6  -2   4  319.13    4.53
  -6   2   4  322.47    5.43
  -6   2   3  243.37    4.47
   6  -2  -3  245.07    3.60
  -6  -2   3  243.88    3.12
  -6  -2   3  235.40    3.49
  -6  -2   3  239.54    3.74
  -6   2   2  331.53    5.55
  -6  -2   2  326.73    4.88
  -6   2   2  322.45    4.66
  -6  -2   2  338.76    4.48
  -6   2   1  271.93    4.33
  -6  -2   1  278.99    4.41
  -6  -2   1  285.09    3.85
  -6  -2   0  114.03    1.95
  -6  -2   0  113.96    2.51
  -6  -2  -1    1.36    0.30
  -6   2  -1    3.08    0.54
  -6   2  -2    9.73    0.87
  -6   2  -3   28.00    1.46
  -6   2  -4   23.24    1.43
   6   2   5    1.69    0.50
  -6   2  -5    1.53    0.72
   6   3 -10   15.64    0.83
  -6   3   9    2.79    0.69
   6   3  -9    3.26    0.61
   6   3  -9    3.19    0.40
   6  -3  -9    3.14    0.49
   6  -3  -8   11.09    0.71
  -6   3   8    8.64    0.89
   6   3  -8   10.45    0.85
   6  -3  -7   13.97    0.77
  -6   3   7   11.72    1.01
   6   3  -7   12.77    0.85
  -6  -3   6   31.45    0.81
   6  -3  -6   32.29    1.16
  -6   3   6   29.38    1.46
   6   3  -6   31.51    1.19
   6   3  -5   92.93    2.00
  -6  -3   5   93.92    1.66
  -6  -3   5   90.45    1.72
   6  -3  -5   93.93    2.08
  -6   3   5   87.20    2.54
  -6  -3   4   28.18    0.93
  -6  -3   4   28.65    0.85
   6  -3  -4   28.30    1.11
  -6   3   4   28.28    1.39
   6  -3  -3   14.57    0.84
  -6   3   3   14.35    1.05
  -6  -3   3   14.52    0.64
  -6   3   2   66.88    2.20
   6  -3  -2   65.93    1.82
  -6   3   2   64.46    1.70
  -6  -3   2   63.26    1.49
   6  -3  -1   35.69    1.38
  -6   3   1   37.48    1.37
  -6   3   0    3.73    0.59
  -6   3  -1    8.48    0.81
   6   3   1    8.63    0.71
  -6   3  -2   12.53    1.00
  -6  -3  -2   13.24    0.40
   6   3   2   13.15    0.88
  -6  -3  -2   13.12    0.42
  -6   3  -3    3.58    0.68
   6   3   3    3.31    0.54
  -6   3  -4   10.20    1.07
   6   3   4   10.27    0.87
  -6   3  -5    7.60    1.00
   6   4 -10   22.77    1.04
   6  -4  -9   96.36    2.45
  -6   4   9   82.37    2.73
   6  -4  -8  188.19    3.61
   6   4  -8  176.86    3.58
   6  -4  -7  114.02    2.61
   6   4  -7  110.17    2.49
  -6  -4   6   21.69    0.91
   6  -4  -6   23.69    1.14
   6   4  -6   21.65    0.96
   6   4  -5    8.70    0.55
   6  -4  -5    6.42    0.65
  -6   4   5    9.02    0.94
  -6  -4   5    6.18    0.53
  -6  -4   4   14.82    0.77
   6  -4  -4   14.54    0.93
  -6   4   4   14.58    1.10
  -6  -4   3   26.89    1.05
   6  -4  -3   29.28    1.28
   6  -4  -2   14.89    0.99
  -6   4   2   14.22    1.10
  -6  -4   2   13.54    0.76
   6  -4  -1   15.96    1.05
  -6   4   1   16.17    0.98
   6  -4   0   87.45    2.47
  -6   4   0   88.81    2.43
   6   4   0   85.74    2.14
   6  -4   1  113.64    3.00
  -6   4  -1  115.02    2.95
   6   4   1  114.66    2.65
   6   4   2   90.06    2.40
  -6   4  -2   89.21    2.67
   6   4   3   32.74    1.44
  -6   4  -3   32.00    1.67
   6   4   4   23.63    1.28
  -6   4  -4   24.96    1.56
  -6   5   8    6.10    0.91
   6  -5  -8    6.22    0.75
   6   5  -8    6.08    0.67
   6  -5  -7    8.32    0.81
  -6   5   7    7.42    0.92
   6   5  -7    8.18    0.66
   6  -5  -6   28.36    1.36
  -6   5   6   27.81    1.57
   6   5  -6   28.38    1.01
   6   5  -5   39.54    0.99
   6  -5  -5   39.02    1.59
  -6  -5   5   37.00    1.36
  -6  -5   4   18.46    0.98
   6  -5  -4   16.34    1.09
  -6  -5   3    8.12    0.69
   6  -5  -3    8.26    0.87
  -6  -5   2   30.80    1.27
   6  -5  -2   34.48    1.56
   6  -5  -1   14.47    1.15
  -6  -5   1   11.11    0.84
   6   5  -1   13.42    0.78
  -6   5   0    2.86    0.67
   6   5   0    3.02    0.48
   6   5   1    6.29    0.63
  -6   5  -1    6.31    0.83
   6   5   2    7.43    0.72
  -6   5  -2    7.02    0.91
   6   5   3    1.08    0.46
  -6   5  -3    1.68    0.68
  -6   6   6   50.25    2.18
  -6   6   5  110.08    3.25
  -6   6   4   93.86    2.95
  -6   6   3   84.88    2.83
  -6   6   2  103.75    3.22
  -6   6   1   84.74    2.98
   6   6  -1   85.90    2.09
   6   6   0   25.15    1.14
   6   6   1    2.47    0.49
  -6   6  -1    1.67    0.63
   6   6   2    5.51    0.66
   6   7  -1    7.68    0.64
   6   7   0    0.50    0.37
  -7   0  11    0.81    0.60
   7   0 -10    8.56    0.26
  -7   0  10   16.70    1.14
  -7   0   9   82.38    2.48
   7   0  -8  171.44    3.79
  -7   0   8  164.73    3.53
   7   0  -7   78.08    2.41
  -7   0   7   93.36    2.43
  -7   0   6   39.46    1.50
  -7   0   5   18.55    1.01
  -7   0   4   18.59    1.02
  -7   0   3    7.38    0.67
  -7   0   3    6.85    0.59
  -7   0   2   26.83    1.13
  -7   0   2   25.03    0.75
  -7   0   2   23.97    1.11
  -7   0   1  124.06    2.72
  -7   0   1  121.66    2.66
  -7   0   1  121.96    2.33
  -7   0   0  261.82    4.56
  -7   0   0  275.29    4.38
  -7   0  -1  229.50    4.20
  -7   0  -2   80.64    2.38
  -7   0  -3   14.26    1.12
  -7   0  -4   11.74    1.13
  -7   0  -5    3.60    0.89
  -7  -1  10    1.68    0.57
  -7   1  10    1.80    0.63
   7  -1 -10    1.34    0.27
  -7  -1   9    2.32    0.54
  -7   1   9    2.07    0.58
  -7  -1   8    0.17    0.45
  -7   1   8    0.20    0.47
   7   1  -8    0.03    0.46
  -7  -1   7    2.43    0.54
  -7   1   7    1.93    0.53
   7   1  -7    2.65    0.61
  -7  -1   6   63.38    1.83
  -7   1   6   66.24    2.11
  -7  -1   6   65.19    1.62
  -7  -1   5   50.42    1.56
  -7   1   5   52.44    1.82
  -7  -1   5   52.77    1.46
  -7  -1   4   10.17    0.67
  -7  -1   4   12.42    0.80
  -7   1   4   11.64    0.89
  -7  -1   3   68.04    1.78
  -7  -1   3   64.82    1.71
  -7   1   3   67.90    2.04
  -7   1   2   81.47    2.25
  -7   1   2   73.80    1.56
  -7  -1   2   77.31    1.96
  -7   1   2   77.60    2.04
  -7  -1   2   76.08    1.83
  -7  -1   2   76.33    1.43
  -7   1   1   29.83    1.25
  -7   1   1   31.41    1.42
  -7  -1   1   27.07    1.01
  -7   1   1   29.94    1.08
  -7  -1   1   31.55    1.25
  -7  -1   1   32.45    1.18
  -7  -1   0    6.10    0.59
  -7  -1   0    6.80    0.66
  -7  -1   0    6.32    0.62
  -7   1   0    6.79    0.64
  -7   1  -1    0.17    0.44
  -7  -1  -1   -0.14    0.46
  -7  -1  -2    4.23    0.67
  -7   1  -2    4.90    0.70
  -7  -1  -3   34.48    1.64
  -7   1  -3   33.64    1.61
  -7  -1  -4   25.38    1.53
  -7   1  -4   25.98    1.54
  -7   1  -5    2.07    0.74
  -7  -1  -5    3.04    0.83
  -7   2  10   22.93    1.39
  -7   2   9    1.60    0.57
   7  -2  -9    1.84    0.31
  -7  -2   8    0.05    0.40
  -7  -2   8    0.11    0.21
  -7   2   8    0.44    0.52
   7   2  -8    0.15    0.43
   7  -2  -8    0.03    0.21
   7   2  -7   27.10    1.26
  -7  -2   7   24.70    0.86
  -7  -2   7   22.37    1.07
  -7   2   7   25.44    1.41
   7  -2  -7   24.63    0.64
   7   2  -6  104.54    2.44
   7  -2  -6  100.99    1.55
  -7  -2   6  103.49    2.02
  -7  -2   6  100.81    2.26
  -7   2   6   98.44    2.75
  -7  -2   5  197.96    3.27
  -7  -2   5  198.94    3.37
  -7   2   5  199.31    4.12
  -7  -2   4  178.94    3.03
  -7  -2   4  189.32    3.19
  -7   2   4  181.60    3.87
  -7  -2   3  214.79    3.63
  -7  -2   3  210.03    2.70
  -7  -2   3  206.78    2.66
  -7  -2   3  205.62    3.26
  -7   2   2  187.89    3.95
  -7  -2   2  183.70    3.39
  -7   2   2  182.82    3.10
  -7  -2   2  185.56    2.94
  -7  -2   1   48.26    1.59
  -7  -2   1   50.60    1.25
  -7   2   0    2.96    0.54
  -7  -2   0    4.81    0.45
  -7  -2  -1    3.25    0.41
  -7   2  -1    4.86    0.65
  -7   2  -2    6.51    0.79
  -7   2  -3   32.97    1.67
  -7  -2  -4   25.10    1.55
  -7   2  -4   20.40    1.41
  -7  -2  -5   14.97    1.30
  -7   3   9    0.42    0.56
  -7   3   8    0.45    0.52
   7   3  -8   -0.03    0.41
   7  -3  -8    0.09    0.31
  -7   3   7    2.74    0.66
   7   3  -7    1.77    0.46
   7  -3  -7    2.27    0.39
   7   3  -6   27.10    1.11
  -7  -3   6   28.78    0.91
   7  -3  -6   28.10    1.00
  -7   3   6   27.36    1.51
  -7   3   5   52.22    2.00
  -7  -3   5   51.16    1.34
   7  -3  -5   50.09    1.39
   7  -3  -4    8.65    0.64
  -7  -3   4    9.39    0.62
  -7  -3   4    8.70    0.41
  -7   3   4   10.07    0.94
  -7   3   3   52.12    2.02
   7  -3  -3   54.14    1.53
  -7  -3   3   54.66    1.53
  -7  -3   3   52.74    1.23
  -7  -3   3   51.96    1.05
  -7   3   2   77.67    2.53
  -7   3   2   80.16    1.93
  -7  -3   2   75.08    1.63
  -7   3   1   23.46    1.12
  -7   3   0    0.43    0.41
  -7   3  -1    1.42    0.50
  -7   3  -2    2.82    0.67
  -7   3  -3   19.43    1.34
  -7   3  -4   22.94    1.52
  -7   4   8   99.99    3.13
   7   4  -8   94.72    2.38
   7   4  -7   67.59    1.84
   7  -4  -7   68.32    1.87
  -7   4   7   63.59    2.39
   7   4  -6   11.95    0.73
   7  -4  -6    9.89    0.76
  -7   4   6   12.83    1.16
   7  -4  -5    4.68    0.60
  -7   4   5    5.83    0.83
  -7   4   4   15.46    1.19
   7  -4  -4   14.72    0.91
  -7   4   3   11.82    1.09
   7  -4  -3   11.08    0.85
  -7  -4   3   11.03    0.67
  -7   4   2   12.92    1.14
   7  -4  -2   13.80    0.95
  -7  -4   2   11.77    0.71
  -7   4   1   42.91    1.59
   7  -4  -1   46.82    1.74
  -7   4   0  157.10    3.50
  -7   4  -1  153.32    3.58
  -7   4  -2   48.33    2.01
  -7   4  -3    8.86    1.01
   7  -5  -6   16.12    1.05
   7  -5  -5   31.80    1.46
  -7   5   4    5.49    0.90
   7  -5  -4    3.44    0.67
  -7   5   3   24.27    1.55
   7  -5  -3   27.64    1.40
  -7   5   2   47.55    2.18
   7  -5  -2   49.19    1.91
  -7   5   1   12.34    1.24
  -7   5   0    0.35    0.52
  -7   5  -1    0.43    0.54
   7   5   1    0.35    0.40
  -7   5  -2    1.25    0.64
   7   6   0    0.76    0.39
  -8   0  10    0.41    0.54
  -8   0   9    7.07    0.83
  -8   0   8   21.59    1.21
  -8   0   7   51.41    1.89
  -8   0   6   53.34    1.83
  -8   0   5  149.78    3.27
  -8   0   5  151.40    3.02
  -8   0   4  158.54    3.33
  -8   0   4  157.53    3.16
  -8   0   3  108.60    2.62
  -8   0   2   29.73    0.85
  -8   0   2   31.01    1.35
  -8   0   1   50.05    1.71
  -8   0   1   43.31    1.32
  -8   0   0   46.02    1.67
  -8   0   0   47.47    1.56
  -8   0  -1   17.24    1.05
  -8   0  -2    0.52    0.49
  -8   0  -3    0.12    0.63
  -8   0  -4    4.95    0.88
  -8  -1  10    0.69    0.54
  -8   1  10    0.32    0.55
  -8  -1   9    3.03    0.63
  -8   1   9    3.11    0.69
  -8  -1   8   29.92    1.43
  -8   1   8   29.80    1.53
  -8  -1   8   31.75    1.10
  -8  -1   7   29.14    1.31
  -8   1   7   29.15    1.47
  -8  -1   7   28.99    1.09
  -8  -1   6    3.14    0.44
  -8  -1   6    3.25    0.55
  -8   1   6    3.24    0.62
  -8  -1   5    1.44    0.45
  -8  -1   5    1.27    0.36
  -8   1   5    1.47    0.56
  -8  -1   4    0.19    0.39
  -8   1   4    0.45    0.45
  -8  -1   4   -0.02    0.32
  -8  -1   3    0.34    0.38
  -8   1   3    0.77    0.45
  -8  -1   3    0.20    0.33
  -8   1   2    6.13    0.75
  -8   1   2    6.00    0.45
  -8  -1   2    6.18    0.40
  -8  -1   2    6.65    0.61
  -8   1   1   20.82    1.22
  -8   1   1   20.94    0.95
  -8  -1   1   20.39    0.88
  -8  -1   1   22.95    1.03
  -8  -1   0    9.46    0.73
  -8  -1   0   10.27    0.76
  -8   1   0    8.97    0.73
  -8  -1  -1   -0.17    0.39
  -8   1  -1    0.41    0.43
  -8  -1  -1    0.03    0.44
  -8   1  -2   -0.04    0.51
  -8  -1  -2    0.04    0.52
  -8   1  -3    1.04    0.63
  -8  -1  -3    0.62    0.65
  -8   1  -4    1.12    0.68
  -8  -1  -4    0.65    0.73
  -8  -2   9   33.84    1.45
  -8   2   9   35.28    1.75
   8   2  -8   29.29    1.40
  -8  -2   8   28.55    1.29
  -8   2   8   27.16    1.50
  -8  -2   7   31.00    1.06
  -8  -2   7   29.24    1.23
  -8   2   7   31.73    1.61
  -8  -2   6   26.26    1.15
  -8  -2   6   24.22    0.99
  -8   2   6   25.25    1.42
  -8  -2   5    5.04    0.55
  -8  -2   5    4.05    0.48
  -8  -2   4    5.48    0.52
  -8   2   4    5.05    0.74
  -8  -2   4    4.96    0.54
  -8  -2   3   21.75    1.05
  -8  -2   3   19.62    0.84
  -8   2   3   23.22    1.34
  -8   2   2   52.35    2.00
  -8  -2   2   48.22    1.21
  -8   2   2   48.84    1.37
  -8  -2   2   47.60    1.31
  -8   2   1   24.99    1.44
  -8  -2   1   25.32    1.02
  -8   2   1   25.11    1.10
  -8  -2   1   26.33    0.94
  -8  -2   0   17.90    0.97
  -8   2   0   17.58    1.02
  -8  -2  -1   30.60    1.38
  -8   2  -1   27.98    1.38
  -8  -2  -2   53.06    1.95
  -8   2  -2   49.72    1.95
  -8  -2  -3   33.79    1.69
  -8   2  -3   35.34    1.76
   8   3  -8   28.92    1.34
  -8   3   8   26.32    1.59
  -8   3   7   14.13    1.17
  -8   3   6    2.60    0.73
   8  -3  -6    1.49    0.30
  -8   3   5    0.33    0.56
  -8  -3   5    0.23    0.29
  -8   3   4    0.04    0.52
  -8  -3   4    0.52    0.33
  -8   3   3    0.04    0.53
  -8   3   2    9.12    1.01
  -8   3   1   13.60    1.16
  -8   3   1   12.48    0.87
  -8   3   0    4.43    0.68
  -8   3  -1    0.81    0.56
  -8   3  -2    0.36    0.61
  -8   3  -3    1.47    0.70
  -8   4   6   51.22    2.22
  -8   4   5   78.39    2.72
  -8   4   4   87.57    2.87
  -8   4   3   47.42    2.14
   8  -4  -3   46.49    1.60
  -8   4   2   32.71    1.82
  -8   4   1   35.64    1.90
  -8   4   1   35.52    1.50
  -8   4   0   27.88    1.40
  -8   4  -1    7.81    0.90
  -8   4  -2    0.58    0.58
  -8   5   0    1.19    0.59
  -9   0   9    1.35    0.60
  -9   0   8    4.11    0.72
  -9   0   7   20.09    1.23
  -9   0   6   87.27    2.49
  -9   0   5  133.61    3.15
  -9   0   4   91.37    2.50
  -9   0   3   34.06    1.49
  -9   0   2    8.76    0.83
  -9   0   1    2.92    0.60
  -9   0   0    0.13    0.48
  -9  -1  10    3.94    0.71
  -9  -1   9    3.86    0.72
  -9   1   9    4.29    0.79
  -9  -1   8   14.35    1.03
  -9   1   8   16.53    1.21
  -9  -1   7   15.47    1.04
  -9   1   7   15.15    1.18
  -9   1   6    4.56    0.74
  -9  -1   6    5.29    0.70
  -9  -1   5    1.05    0.47
  -9   1   5    1.02    0.56
  -9   1   4    4.37    0.71
  -9  -1   4    5.86    0.68
  -9  -1   3   22.24    1.08
  -9   1   3   23.08    1.32
  -9  -1   2   31.47    1.29
  -9   1   2   32.24    1.58
  -9   1   1    6.81    0.86
  -9   1   0    1.92    0.67
  -9   1  -1    9.02    0.99
  -9  -2   9   33.74    1.47
  -9  -2   8   34.64    1.45
  -9  -2   7   23.22    1.14
  -9   2   7   24.47    1.49
  -9   2   6    4.77    0.83
  -9  -2   6    4.28    0.60
  -9  -2   5    1.05    0.40
  -9   2   5    1.22    0.63
  -9   2   4    1.20    0.60
  -9   2   3   26.24    1.52
  -9   2   2   52.89    2.12
  -9   2   1   47.24    2.03
  -9   2   0   47.28    2.08
  -9   3   5    0.72    0.64
  -9   3   4    4.80    0.88
  -9   3   3   14.85    1.26
  -9   3   2   24.61    1.56
 -10   0   8    2.51    0.69
 -10   0   7    4.37    0.77
 -10   0   6    6.37    0.79
 -10   0   5   16.43    1.12
 -10   0   4    6.53    0.80
 -10   1   7    0.63    0.62
 -10   1   6    0.55    0.65
 -10   1   5    0.27    0.58
 -10   1   4    0.76    0.58
 -10   1   3    0.19    0.57
 -10   1   2    0.04    0.62
 -10   1   1    1.64    0.69
   0   0   0    0.00    0.00
;
_shelx_hkl_checksum              85221
loop_
_space_group_symop_operation_xyz
'x, y, z'
'-x, y+1/2, -z'
loop_
_atom_site_label
_atom_site_type_symbol
_atom_site_fract_x
_atom_site_fract_y
_atom_site_fract_z
_atom_site_U_iso_or_equiv
_atom_site_adp_type
_atom_site_occupancy
_atom_site_site_symmetry_order
_atom_site_calc_flag
_atom_site_refinement_flags_posn
_atom_site_refinement_flags_adp
Mn1 Mn 0.00103(10) -0.00109(11) 1.00280(7) 0.03311(9) Uani 1 1 d . .
Cl1 Cl 0.16442(9) 0.2453(2) 0.88597(7) 0.04797(15) Uani 1 1 d . .
Cl2 Cl 0.12187(11) 0.2532(2) 1.22418(7) 0.04741(19) Uani 1 1 d . .
Cl3 Cl -0.27971(9) 0.2472(2) 0.90996(9) 0.04784(19) Uani 1 1 d . .
C1 C 0.3293(9) 0.9721(8) 0.6393(6) 0.0754(17) Uani 1 1 d . .
H1A H 0.4231 1.0707 0.6356 0.091 Uiso 1 1 calc R U
H1B H 0.2171 1.0466 0.6351 0.091 Uiso 1 1 calc R U
C2 C 0.2818(9) 0.8275(10) 0.5141(6) 0.0796(18) Uani 1 1 d . .
H2 H 0.1708 0.8745 0.4276 0.096 Uiso 1 1 calc R U
C3 C 0.2433(11) 0.6275(11) 0.5726(7) 0.105(2) Uani 1 1 d . .
H3A H 0.2743 0.5126 0.5215 0.126 Uiso 1 1 calc R U
H3B H 0.1111 0.6172 0.5599 0.126 Uiso 1 1 calc R U
C4 C 0.3706(8) 0.6318(9) 0.7364(7) 0.0964(19) Uani 1 1 d . .
H4A H 0.3098 0.5666 0.7971 0.116 Uiso 1 1 calc R U
H4B H 0.4893 0.5613 0.7533 0.116 Uiso 1 1 calc R U
F1 F 0.4253(7) 0.7994(12) 0.4769(4) 0.164(3) Uani 1 1 d . .
N1 N 0.4036(6) 0.8523(9) 0.7734(4) 0.0718(14) Uani 1 1 d . .
H1C H 0.3474 0.8884 0.8358 0.086 Uiso 1 1 calc R U
H1D H 0.5275 0.8757 0.8196 0.086 Uiso 1 1 calc R U
loop_
_atom_site_aniso_label
_atom_site_aniso_U_11
_atom_site_aniso_U_22
_atom_site_aniso_U_33
_atom_site_aniso_U_23
_atom_site_aniso_U_13
_atom_site_aniso_U_12
Mn1 0.03491(14) 0.01928(16) 0.04694(17) 0.00095(13) 0.01767(12) -0.00003(12)
Cl1 0.0649(3) 0.0280(3) 0.0703(3) 0.0000(5) 0.04742(18) -0.0014(5)
Cl2 0.0652(4) 0.0310(3) 0.0394(3) 0.0005(5) 0.0125(3) 0.0018(6)
Cl3 0.0326(2) 0.0292(3) 0.0719(4) 0.0041(6) 0.0090(3) 0.0005(5)
C1 0.099(3) 0.046(3) 0.082(3) 0.010(2) 0.036(2) 0.006(2)
C2 0.091(3) 0.095(4) 0.0481(19) 0.004(2) 0.0208(18) 0.016(3)
C3 0.138(4) 0.070(3) 0.118(3) -0.049(3) 0.061(3) -0.026(3)
C4 0.087(3) 0.064(3) 0.134(3) 0.061(2) 0.037(3) 0.005(3)
F1 0.150(2) 0.253(9) 0.117(2) 0.011(4) 0.0814(15) 0.008(4)
N1 0.0616(19) 0.100(3) 0.0452(16) -0.0038(18) 0.0110(14) -0.019(2)
loop_
_atom_type_symbol
_atom_type_description
_atom_type_scat_dispersion_real
_atom_type_scat_dispersion_imag
_atom_type_scat_source
C C 0.0033 0.0016 'International Tables Vol C Tables 4.2.6.8 and 6.1.1.4'
H H 0.0000 0.0000 'International Tables Vol C Tables 4.2.6.8 and 6.1.1.4'
N N 0.0061 0.0033 'International Tables Vol C Tables 4.2.6.8 and 6.1.1.4'
F F 0.0171 0.0103 'International Tables Vol C Tables 4.2.6.8 and 6.1.1.4'
Cl Cl 0.1484 0.1585 'International Tables Vol C Tables 4.2.6.8 and 6.1.1.4'
Mn Mn 0.3368 0.7283 'International Tables Vol C Tables 4.2.6.8 and 6.1.1.4'
loop_
_geom_angle_atom_site_label_1
_geom_angle_atom_site_label_2
_geom_angle_atom_site_label_3
_geom_angle
_geom_angle_site_symmetry_1
_geom_angle_site_symmetry_3
Cl1 Mn1 Cl1 178.46(5) . 2_547
Cl1 Mn1 Cl3 86.31(4) . .
Cl1 Mn1 Cl3 94.06(4) 2_547 .
Cl1 Mn1 Cl3 93.47(4) . 2_547
Cl1 Mn1 Cl3 86.12(4) 2_547 2_547
Cl3 Mn1 Cl3 178.77(4) . 2_547
Cl1 Mn1 Cl2 83.05(4) . .
Cl1 Mn1 Cl2 98.47(4) 2_547 .
Cl3 Mn1 Cl2 82.58(4) . .
Cl3 Mn1 Cl2 98.60(4) 2_547 .
Cl1 Mn1 Cl2 95.62(4) . 2_547
Cl1 Mn1 Cl2 82.86(4) 2_547 2_547
Cl3 Mn1 Cl2 96.34(4) . 2_547
Cl3 Mn1 Cl2 82.48(4) 2_547 2_547
Cl2 Mn1 Cl2 178.33(6) . 2_547
Mn1 Cl1 Mn1 79.41(2) . 2_557
Mn1 Cl2 Mn1 78.353(19) . 2_557
Mn1 Cl3 Mn1 78.920(19) . 2_557
N1 C1 C2 106.4(4) . .
F1 C2 C1 110.5(6) . .
F1 C2 C3 107.0(6) . .
C1 C2 C3 105.8(5) . .
C2 C3 C4 103.8(5) . .
N1 C4 C3 104.7(5) . .
C1 N1 C4 109.9(4) . .
loop_
_geom_bond_atom_site_label_1
_geom_bond_atom_site_label_2
_geom_bond_distance
_geom_bond_site_symmetry_2
Mn1 Cl1 2.5358(13) .
Mn1 Cl1 2.5428(13) 2_547
Mn1 Cl3 2.5514(13) .
Mn1 Cl3 2.5535(13) 2_547
Mn1 Cl2 2.5665(13) .
Mn1 Cl2 2.5693(13) 2_547
Cl1 Mn1 2.5427(13) 2_557
Cl2 Mn1 2.5694(13) 2_557
Cl3 Mn1 2.5535(13) 2_557
C1 N1 1.423(7) .
C1 C2 1.457(8) .
C2 F1 1.287(9) .
C2 C3 1.487(10) .
C3 C4 1.499(8) .
C4 N1 1.472(8) .
loop_
_geom_torsion_atom_site_label_1
_geom_torsion_atom_site_label_2
_geom_torsion_atom_site_label_3
_geom_torsion_atom_site_label_4
_geom_torsion
N1 C1 C2 F1 -89.2(7)
N1 C1 C2 C3 26.3(7)
F1 C2 C3 C4 86.6(6)
C1 C2 C3 C4 -31.3(7)
C2 C3 C4 N1 24.2(7)
C2 C1 N1 C4 -10.7(7)
C3 C4 N1 C1 -8.8(8)
