#------------------------------------------------------------------------------
#$Date: 2019-10-10 03:06:54 +0300 (Thu, 10 Oct 2019) $
#$Revision: 219226 $
#$URL: file:///home/coder/svn-repositories/cod/cif/7/12/42/7124295.cif $
#------------------------------------------------------------------------------
#
# This file is available in the Crystallography Open Database (COD),
# http://www.crystallography.net/
#
# All data on this site have been placed in the public domain by the
# contributors.
#
data_7124295
loop_
_publ_author_name
'Hou, Hongwei'
'Shao, Chao Zhi'
'Yu, Cai-Xia'
'Xie, Qiong'
'Wu, Qiong'
'Zhao, Yujie'
_publ_section_title
;
 Porous functionalized MOF self-evolution promoting molecule encapsulation
 and Hg2+ removal
;
_journal_name_full               'Chemical Communications'
_journal_paper_doi               10.1039/C9CC06849J
_journal_year                    2019
_chemical_formula_moiety         '0.33(C36 H30 N12 O12 Zn3)'
_chemical_formula_sum            'C12 H10 N4 O4 Zn'
_chemical_formula_weight         339.61
_space_group_crystal_system      hexagonal
_space_group_IT_number           171
_space_group_name_Hall           'P 62'
_space_group_name_H-M_alt        'P 62'
_symmetry_space_group_name_Hall  'P 62'
_symmetry_space_group_name_H-M   'P 62'
_atom_sites_solution_hydrogens   geom
_atom_sites_solution_primary     dual
_audit_creation_date             2019-01-07
_audit_creation_method
;
Olex2 1.2-beta
(compiled 2017.03.28 svn.r3405 for OlexSys, GUI svn.r5337)
;
_audit_update_record
;
2019-01-10 deposited with the CCDC.    2019-10-09 downloaded from the CCDC.
;
_cell_angle_alpha                90
_cell_angle_beta                 90
_cell_angle_gamma                120
_cell_formula_units_Z            3
_cell_length_a                   15.465(3)
_cell_length_b                   15.465(3)
_cell_length_c                   6.3597(13)
_cell_measurement_reflns_used    4472
_cell_measurement_temperature    293(2)
_cell_measurement_theta_max      27.8884
_cell_measurement_theta_min      2.6340
_cell_volume                     1317.2(5)
_computing_molecular_graphics    'Olex2 (Dolomanov et al., 2009)'
_computing_publication_material  'Olex2 (Dolomanov et al., 2009)'
_computing_structure_refinement  'ShelXL (Sheldrick, 2015)'
_computing_structure_solution    'ShelXT (Sheldrick, 2015)'
_diffrn_ambient_temperature      293(2)
_diffrn_measured_fraction_theta_full 0.968
_diffrn_measured_fraction_theta_max 0.969
_diffrn_measurement_device_type  'Bruker P4'
_diffrn_measurement_method       '\w scans'
_diffrn_radiation_monochromator  graphite
_diffrn_radiation_type           MoK\a
_diffrn_radiation_wavelength     0.71073
_diffrn_reflns_av_R_equivalents  0.0344
_diffrn_reflns_av_unetI/netI     0.0178
_diffrn_reflns_Laue_measured_fraction_full 0.968
_diffrn_reflns_Laue_measured_fraction_max 0.969
_diffrn_reflns_limit_h_max       18
_diffrn_reflns_limit_h_min       -18
_diffrn_reflns_limit_k_max       18
_diffrn_reflns_limit_k_min       -18
_diffrn_reflns_limit_l_max       7
_diffrn_reflns_limit_l_min       -7
_diffrn_reflns_number            13194
_diffrn_reflns_point_group_measured_fraction_full 0.967
_diffrn_reflns_point_group_measured_fraction_max 0.968
_diffrn_reflns_theta_full        25.242
_diffrn_reflns_theta_max         25.485
_diffrn_reflns_theta_min         3.042
_exptl_absorpt_coefficient_mu    1.415
_exptl_absorpt_correction_T_max  0.7456
_exptl_absorpt_correction_T_min  0.7004
_exptl_absorpt_correction_type   multi-scan
_exptl_crystal_colour            colorless
_exptl_crystal_density_diffrn    1.284
_exptl_crystal_density_method    'not measured'
_exptl_crystal_description       Prism
_exptl_crystal_F_000             516
_exptl_crystal_size_max          0.12
_exptl_crystal_size_mid          0.1
_exptl_crystal_size_min          0.09
_refine_diff_density_max         0.113
_refine_diff_density_min         -0.114
_refine_diff_density_rms         0.027
_refine_ls_abs_structure_details
;
 Refined as an inversion twin.
;
_refine_ls_abs_structure_Flack   0.948(18)
_refine_ls_extinction_method     none
_refine_ls_goodness_of_fit_ref   0.777
_refine_ls_hydrogen_treatment    mixed
_refine_ls_matrix_type           full
_refine_ls_number_parameters     100
_refine_ls_number_reflns         1585
_refine_ls_number_restraints     1
_refine_ls_restrained_S_all      0.777
_refine_ls_R_factor_all          0.0192
_refine_ls_R_factor_gt           0.0190
_refine_ls_shift/su_max          0.030
_refine_ls_shift/su_mean         0.001
_refine_ls_structure_factor_coef Fsqd
_refine_ls_weighting_details
'w=1/[\s^2^(Fo^2^)+(0.0328P)^2^+0.4301P] where P=(Fo^2^+2Fc^2^)/3'
_refine_ls_weighting_scheme      calc
_refine_ls_wR_factor_gt          0.0459
_refine_ls_wR_factor_ref         0.0461
_reflns_Friedel_coverage         0.822
_reflns_Friedel_fraction_full    0.967
_reflns_Friedel_fraction_max     0.968
_reflns_number_gt                1571
_reflns_number_total             1585
_reflns_threshold_expression     'I > 2\s(I)'
_cod_data_source_file            c9cc06849j2.cif
_cod_data_source_block           c_sq
_cod_original_cell_volume        1317.2(6)
_cod_database_code               7124295
_shelx_shelxl_version_number     2018/3
_shelx_space_group_comment
;
The symmetry employed for this shelxl refinement is uniquely defined
by the following loop, which should always be used as a source of
symmetry information in preference to the above space-group names.
They are only intended as comments.
;
_shelx_estimated_absorpt_t_max   0.883
_shelx_estimated_absorpt_t_min   0.849
_olex2_refinement_description
;
1. Twinned data refinement
 Scales: 0.052(18)
 0.948(18)
2. Fixed Uiso
 At 1.2 times of:
  All N(H,H) groups
3.a Aromatic/amide H refined with riding coordinates:
 C1(H1), C4(H4), C5(H5)
3.b X=CH2 refined with riding coordinates:
 N2(H2B,H2A)
;
_shelx_res_file
;
TITL c in P1 New: P62
    c_sq.res
    created by SHELXL-2018/3 at 13:55:14 on 07-Jan-2019
CELL 0.71073 15.465 15.465 6.3597 90 90 120
ZERR 3 0.003 0.003 0.0013 0 0 0
LATT -1
SYMM -Y+X,+X,0.333+Z
SYMM -Y,+X-Y,0.667+Z
SYMM -X,-Y,+Z
SYMM +Y-X,-X,0.333+Z
SYMM +Y,-X+Y,0.667+Z
SFAC C H N O Zn
UNIT 36 30 12 12 3

L.S. 10 0 37
PLAN  0
SIZE 0.12 0.1 0.09
BOND $H
CONF
htab
ABIN
fmap 2
acta
TWIN -1 0 0 0 -1 0 0 0 -1 2
OMIT -3 51
OMIT -1 3 0
OMIT -2 3 0
OMIT -1 2 0
OMIT -2 4 0
OMIT 0 1 0
OMIT -1 7 0
OMIT 0 3 -1
OMIT 0 3 0
OMIT -1 4 2
OMIT -3 5 1
OMIT -6 9 0
OMIT -1 6 0
OMIT 0 4 -2
OMIT -3 5 -1
OMIT -4 5 0
OMIT -3 5 0
OMIT -2 5 0
OMIT 0 8 2
OMIT 0 8 -2
OMIT 0 4 0
OMIT -5 8 1
OMIT -1 4 -2
OMIT 0 3 -3
OMIT -2 13 4
OMIT -2 8 4
OMIT -2 14 4
OMIT -6 12 -3
OMIT 0 2 4
OMIT -3 12 -3
OMIT 0 10 -4
OMIT -2 8 0
OMIT -7 8 1
OMIT 0 4 2
OMIT 0 1 -2
OMIT -11 14 0
OMIT -2 12 -2
OMIT -4 11 2
OMIT -8 11 0
OMIT -1 16 0
OMIT 0 11 0
OMIT -1 7 -1
OMIT -6 7 1
OMIT -6 8 0
OMIT 0 3 3
OMIT -1 2 4
OMIT -1 12 2
OMIT 0 1 2
OMIT 0 6 0
OMIT -5 8 2
OMIT -1 4 0
REM <olex2.extras>
REM <HklSrc "%.\\c_sq.hkl">
REM </olex2.extras>

WGHT    0.032800    0.430100
BASF   0.94827
FVAR       0.83126
ZN1   5    0.500000    0.500000    0.480642    10.50000    0.04021    0.04015 =
         0.03871    0.00000    0.00000    0.02968
O1    4    0.295113    0.426712    0.557536    11.00000    0.05338    0.11425 =
         0.05806    0.02570    0.00316    0.05261
O2    4    0.395009    0.481550    0.282876    11.00000    0.03784    0.06355 =
         0.04890   -0.00856   -0.00516    0.03614
N1    3    0.098075    0.482345   -0.004051    11.00000    0.02548    0.04874 =
         0.04062   -0.00265   -0.00190    0.01679
N2    3    0.100186    0.373590    0.496417    11.00000    0.04196    0.09246 =
         0.05373    0.02458    0.01170    0.03330
AFIX  93
H2B   2    0.038539    0.350180    0.529682    11.00000   -1.20000
H2A   2    0.139387    0.365666    0.580030    11.00000   -1.20000
AFIX   0
C1    1    0.071091    0.435242    0.178197    11.00000    0.02479    0.05403 =
         0.04728    0.00103    0.00265    0.01900
AFIX  43
H1    2    0.004940    0.408564    0.219855    11.00000    0.07594
AFIX   0
C2    1    0.135596    0.423019    0.312039    11.00000    0.03588    0.04874 =
         0.03912    0.00068    0.00114    0.02209
C3    1    0.234833    0.462888    0.246679    11.00000    0.02922    0.04108 =
         0.03993   -0.00285   -0.00195    0.02048
C4    1    0.261815    0.511736    0.055138    11.00000    0.02708    0.05491 =
         0.05157    0.00573    0.00390    0.02347
AFIX  43
H4    2    0.327177    0.538491    0.007921    11.00000    0.06003
AFIX   0
C5    1    0.193418    0.521459   -0.067128    11.00000    0.02984    0.05398 =
         0.04519    0.00783    0.00435    0.01958
AFIX  43
H5    2    0.213471    0.555414   -0.194466    11.00000    0.06740
AFIX   0
C6    1    0.311753    0.454090    0.374718    11.00000    0.03799    0.04740 =
         0.04945   -0.00324   -0.00309    0.02820
HKLF 4




REM  c in P1 New: P62
REM wR2 = 0.0461, GooF = S = 0.777, Restrained GooF = 0.777 for all data
REM R1 = 0.0190 for 1571 Fo > 4sig(Fo) and 0.0192 for all 1585 data
REM 100 parameters refined using 1 restraints

END

WGHT      0.0270      0.0727

REM Instructions for potential hydrogen bonds
EQIV $5 x-y, x, z+1/3
HTAB N2 O2_$5
HTAB N2 O1

REM Highest difference peak  0.113,  deepest hole -0.114,  1-sigma level  0.027
Q1    1   0.1082  0.3152  0.4353  11.00000  0.05    0.11
Q2    1   0.0511  0.2987  0.5572  11.00000  0.05    0.11
Q3    1   0.2310  0.6310 -0.1960  11.00000  0.05    0.11
Q4    1   0.2508  0.3660  0.4848  11.00000  0.05    0.09
Q5    1   0.2729  0.4740  0.7048  11.00000  0.05    0.09
Q6    1   0.1007  0.5468  0.1840  11.00000  0.05    0.09
Q7    1   0.2219  0.5154  0.0019  11.00000  0.05    0.09
Q8    1   0.4229  0.5278  0.1518  11.00000  0.05    0.09
Q9    1   0.4077  0.4191  0.3849  11.00000  0.05    0.09
Q10   1   0.1773  0.5195  0.2945  11.00000  0.05    0.08
Q11   1   0.0808  0.5063 -0.1150  11.00000  0.05    0.08
Q12   1   0.4022  0.5645  0.0429  11.00000  0.05    0.08
Q13   1   0.5000  0.5000  0.1292  10.50000  0.05    0.08
Q14   1   0.2221  0.5868 -0.2998  11.00000  0.05    0.08
Q15   1   0.0108  0.3033  0.6373  11.00000  0.05    0.08
Q16   1   0.3925  0.5356  0.3303  11.00000  0.05    0.08
Q17   1   0.1950  0.4315  0.2606  11.00000  0.05    0.07
Q18   1   0.2397  0.6792 -0.1064  11.00000  0.05    0.07
Q19   1   0.4122  0.4131  0.2636  11.00000  0.05    0.07
Q20   1   0.0911  0.4043  0.1485  11.00000  0.05    0.07
;
_shelx_res_checksum              7604
_shelx_fab_file
;
    0    1    7      0.32     -0.14
   -1    2    7      0.24      0.17
    0    2    7      0.35     -0.03
   -2    3    7     -0.28     -0.12
   -1    3    7     -0.15      0.05
    0    3    7     -0.26      0.36
   -3    4    7     -0.46     -0.68
   -2    4    7     -0.54     -0.26
   -1    4    7     -0.44      0.19
    0    4    7     -0.39      0.42
   -4    5    7     -0.26     -0.35
   -3    5    7     -0.37     -0.37
   -2    5    7     -0.30      0.06
   -1    5    7     -0.15      0.28
    0    5    7      0.18      0.22
   -5    6    7     -0.22      0.51
   -4    6    7      0.04      0.07
   -3    6    7      0.01      0.02
   -2    6    7     -0.03      0.26
   -1    6    7      0.20      0.31
    0    6    7      0.74      0.24
   -6    7    7     -0.47      0.62
   -5    7    7      0.07      0.42
   -4    7    7      0.27      0.04
   -3    7    7      0.03      0.08
   -2    7    7     -0.03      0.23
   -1    7    7      0.38      0.26
    0    0    6     -0.77     -0.54
    0    1    6     -0.05     -0.33
   -1    2    6      0.65      0.00
    0    2    6      0.72      0.01
   -2    3    6      0.86      0.07
   -1    3    6      0.78      0.09
    0    3    6      0.33     -0.04
   -3    4    6      0.43     -0.08
   -2    4    6      0.84      0.09
   -1    4    6      0.30     -0.06
    0    4    6     -0.03     -0.28
   -4    5    6      0.25     -0.19
   -3    5    6      0.73      0.05
   -2    5    6      0.66      0.10
   -1    5    6      0.23     -0.13
    0    5    6      0.12     -0.25
   -5    6    6      0.28     -0.33
   -4    6    6      0.36     -0.24
   -3    6    6      0.31      0.02
   -2    6    6      0.25     -0.04
   -1    6    6      0.15     -0.22
    0    6    6      0.00     -0.24
   -6    7    6      0.20     -0.27
   -5    7    6      0.25     -0.45
   -4    7    6     -0.23     -0.27
   -3    7    6     -0.48     -0.17
   -2    7    6     -0.30     -0.49
   -1    7    6     -0.31     -0.68
    0    7    6     -0.25     -0.46
   -7    8    6      0.14     -0.22
   -6    8    6      0.49     -0.22
   -5    8    6      0.12     -0.29
   -4    8    6     -0.44     -0.17
   -3    8    6     -0.45     -0.50
   -2    8    6     -0.31     -0.98
   -1    8    6     -0.32     -0.93
    0    8    6     -0.18     -0.58
   -8    9    6     -0.09     -0.40
   -7    9    6      0.27     -0.15
   -6    9    6      0.43     -0.19
   -5    9    6      0.24     -0.20
   -4    9    6      0.16     -0.33
   -3    9    6      0.26     -0.65
   -2    9    6      0.28     -0.63
   -1    9    6      0.15     -0.40
    0    9    6     -0.11     -0.38
   -9   10    6     -0.25     -0.36
   -8   10    6     -0.20     -0.30
   -7   10    6      0.04     -0.23
   -6   10    6      0.20     -0.31
   -5   10    6      0.32     -0.39
   -4   10    6      0.44     -0.47
   -3   10    6      0.58     -0.18
   -2   10    6      0.61      0.31
   -1   10    6      0.26      0.29
    0   10    6     -0.12     -0.03
   -9   11    6     -0.11     -0.22
   -8   11    6     -0.09     -0.17
   -7   11    6     -0.03     -0.22
   -6   11    6      0.02     -0.29
   -5   11    6      0.04     -0.37
   -4   11    6      0.13     -0.23
   -3   11    6      0.42      0.31
   -2   11    6      0.42      0.62
    0    1    5     -0.11      0.02
   -1    2    5      0.34      0.03
    0    2    5     -0.22      0.14
   -2    3    5      0.61      0.01
   -1    3    5      0.32     -0.15
    0    3    5     -0.18      0.00
   -3    4    5      0.20      0.19
   -2    4    5      0.57     -0.07
   -1    4    5      0.41     -0.29
    0    4    5      0.17     -0.28
   -4    5    5     -0.17     -0.12
   -3    5    5      0.22      0.00
   -2    5    5      0.52     -0.15
   -1    5    5      0.46     -0.18
    0    5    5      0.40     -0.05
   -5    6    5     -0.01     -0.37
   -4    6    5      0.04     -0.36
   -3    6    5      0.29     -0.16
   -2    6    5      0.25     -0.03
   -1    6    5      0.00      0.00
    0    6    5     -0.23     -0.02
   -6    7    5      0.36      0.36
   -5    7    5      0.27     -0.26
   -4    7    5      0.26     -0.30
   -3    7    5      0.19      0.05
   -2    7    5     -0.13      0.11
   -1    7    5     -0.51     -0.23
    0    7    5     -0.90     -0.24
   -7    8    5      0.48      0.92
   -6    8    5      0.32      0.38
   -5    8    5      0.12     -0.33
   -4    8    5      0.08     -0.25
   -3    8    5      0.17      0.22
   -2    8    5      0.14      0.08
   -1    8    5     -0.20     -0.18
    0    8    5     -0.64      0.05
   -8    9    5      0.36      0.59
   -7    9    5      0.08      0.69
   -6    9    5     -0.23     -0.08
   -5    9    5     -0.38     -0.69
   -4    9    5     -0.07     -0.25
   -3    9    5      0.57      0.29
   -2    9    5      0.71      0.21
   -1    9    5      0.23      0.16
    0    9    5     -0.14      0.20
   -9   10    5      0.19      0.13
   -8   10    5      0.06      0.39
   -7   10    5     -0.21      0.21
   -6   10    5     -0.42     -0.37
   -5   10    5     -0.43     -0.49
   -4   10    5      0.07      0.04
   -3   10    5      0.54      0.33
   -2   10    5      0.35      0.17
   -1   10    5      0.09      0.05
    0   10    5      0.17      0.01
  -10   11    5     -0.06     -0.04
   -9   11    5      0.13     -0.04
   -8   11    5      0.06     -0.14
   -7   11    5     -0.02     -0.01
   -6   11    5     -0.07     -0.01
   -5   11    5     -0.12      0.01
   -4   11    5     -0.07      0.18
   -3   11    5     -0.16      0.20
   -2   11    5     -0.18      0.08
   -1   11    5      0.21      0.13
    0   11    5      0.45      0.14
  -11   12    5     -0.25      0.04
  -10   12    5     -0.09      0.08
   -9   12    5     -0.01     -0.49
   -8   12    5     -0.10     -0.47
   -7   12    5      0.07      0.02
   -6   12    5      0.20      0.06
   -5   12    5     -0.04     -0.07
   -4   12    5     -0.32      0.12
   -3   12    5     -0.28      0.33
   -2   12    5      0.09      0.42
   -1   12    5      0.44      0.49
    0   12    5      0.37      0.25
  -11   13    5     -0.21      0.28
  -10   13    5     -0.12     -0.14
   -9   13    5     -0.29     -0.59
   -8   13    5     -0.32     -0.35
   -7   13    5      0.01     -0.09
   -6   13    5      0.08     -0.21
   -5   13    5     -0.18     -0.12
   -4   13    5     -0.18      0.30
   -3   13    5      0.08      0.50
   -2   13    5      0.17      0.41
   -9   14    5     -0.20     -0.21
   -8   14    5     -0.23     -0.09
   -7   14    5     -0.17     -0.04
   -6   14    5     -0.23     -0.06
   -5   14    5     -0.23      0.07
    0    1    4      0.04      0.34
   -1    2    4     -0.41      0.31
    0    2    4     -0.18      0.50
   -2    3    4      0.09     -0.25
   -1    3    4     -0.43      0.00
    0    3    4     -0.77     -0.41
   -3    4    4      0.83     -0.19
   -2    4    4      0.15     -0.43
   -1    4    4     -0.59     -0.80
    0    4    4     -0.54     -0.89
   -4    5    4      0.05      0.15
   -3    5    4      0.06     -0.20
   -2    5    4     -0.28     -0.51
   -1    5    4     -0.24     -0.27
    0    5    4      0.33      0.45
   -5    6    4     -0.63     -0.13
   -4    6    4     -0.36     -0.28
   -3    6    4     -0.34     -0.28
   -2    6    4     -0.18      0.29
   -1    6    4      0.28      1.13
    0    6    4      0.24      1.04
   -6    7    4      0.32     -0.28
   -5    7    4      0.43     -0.49
   -4    7    4      0.39     -0.52
   -3    7    4      0.21     -0.04
   -2    7    4      0.14      0.68
   -1    7    4      0.04      0.78
    0    7    4     -0.28     -0.20
   -7    8    4      0.73      0.22
   -6    8    4      0.80     -0.02
   -5    8    4      1.01     -0.29
   -4    8    4      0.92     -0.27
   -3    8    4      0.35     -0.14
   -2    8    4     -0.11     -0.02
   -1    8    4     -0.22     -0.24
    0    8    4     -0.05     -0.64
   -8    9    4      0.02      0.40
   -7    9    4     -0.12      0.32
   -6    9    4      0.18      0.07
   -5    9    4      0.58      0.09
   -4    9    4      0.34     -0.04
   -3    9    4     -0.12     -0.28
   -2    9    4     -0.05     -0.16
   -1    9    4      0.10     -0.11
    0    9    4     -0.03     -0.18
   -9   10    4     -0.07     -0.08
   -8   10    4     -0.45     -0.10
   -7   10    4     -0.30     -0.38
   -6   10    4      0.00      0.01
   -5   10    4     -0.05      0.43
   -4   10    4     -0.27      0.06
   -3   10    4     -0.02     -0.22
   -2   10    4      0.32     -0.07
   -1   10    4     -0.08     -0.27
    0   10    4     -0.65     -0.52
  -10   11    4      0.25     -0.32
   -9   11    4     -0.27     -0.29
   -8   11    4      0.04     -0.75
   -7   11    4      0.28     -0.51
   -6   11    4      0.02      0.39
   -5   11    4     -0.26      0.35
   -4   11    4     -0.08     -0.39
   -3   11    4      0.22     -0.54
   -2   11    4      0.02     -0.49
   -1   11    4     -0.57     -0.85
    0   11    4     -0.74     -0.84
  -11   12    4      0.21     -0.08
  -10   12    4     -0.28      0.09
   -9   12    4     -0.15     -0.17
   -8   12    4      0.19     -0.30
   -7   12    4      0.18      0.24
   -6   12    4      0.08      0.33
   -5   12    4      0.20     -0.36
   -4   12    4      0.25     -0.62
   -3   12    4      0.00     -0.29
   -2   12    4     -0.15     -0.27
   -1   12    4     -0.16     -0.54
    0   12    4     -0.20     -0.36
  -12   13    4      0.05     -0.05
  -11   13    4      0.01      0.19
  -10   13    4     -0.10      0.35
   -9   13    4     -0.22      0.38
   -8   13    4     -0.13      0.53
   -7   13    4      0.27      0.34
   -6   13    4      0.71     -0.31
   -5   13    4      0.71     -0.41
   -4   13    4      0.19      0.13
   -3   13    4      0.01      0.34
   -2   13    4      0.48      0.08
   -1   13    4      0.57     -0.07
    0   13    4      0.09      0.07
  -13   14    4     -0.09     -0.21
  -12   14    4      0.16     -0.09
  -11   14    4      0.35      0.14
  -10   14    4      0.02      0.44
   -9   14    4     -0.31      0.70
   -8   14    4      0.08      0.56
   -7   14    4      0.79     -0.12
   -6   14    4      1.00     -0.44
   -5   14    4      0.48     -0.01
   -4   14    4     -0.06      0.20
   -3   14    4      0.26     -0.11
   -2   14    4      0.78     -0.23
   -1   14    4      0.47     -0.04
  -12   15    4      0.21     -0.03
  -11   15    4      0.15      0.13
  -10   15    4     -0.28      0.38
   -9   15    4     -0.32      0.55
   -8   15    4      0.22      0.31
   -7   15    4      0.60     -0.24
   -6   15    4      0.42     -0.37
   -5   15    4     -0.07     -0.22
   -4   15    4     -0.18     -0.36
   -3   15    4      0.19     -0.45
   -8   16    4      0.06      0.25
    0    1    3      0.99     -2.43
   -1    2    3      0.18     -0.24
    0    2    3     -0.04      0.19
   -2    3    3     -0.54      0.61
   -1    3    3     -0.41      0.61
    0    3    3     -0.13      0.66
   -3    4    3     -0.20      0.06
   -2    4    3     -0.76     -0.39
   -1    4    3     -0.24     -0.11
    0    4    3      0.38      0.47
   -4    5    3      0.32      0.10
   -3    5    3     -0.31     -1.03
   -2    5    3     -0.61     -1.45
   -1    5    3      0.06     -0.45
    0    5    3      0.25      0.60
   -5    6    3     -0.30      0.21
   -4    6    3      0.00     -0.36
   -3    6    3     -0.39     -0.92
   -2    6    3     -0.34     -0.84
   -1    6    3     -0.09      0.13
    0    6    3     -0.55      0.48
   -6    7    3     -0.68      0.00
   -5    7    3     -0.35      0.02
   -4    7    3     -0.18      0.45
   -3    7    3     -0.27      0.52
   -2    7    3     -0.19      0.41
   -1    7    3     -0.50      0.42
    0    7    3     -0.52      0.28
   -7    8    3      0.08      0.40
   -6    8    3     -0.18      0.29
   -5    8    3     -0.27      0.58
   -4    8    3     -0.21      0.90
   -3    8    3     -0.03      0.68
   -2    8    3     -0.16      0.19
   -1    8    3     -0.27     -0.01
    0    8    3      0.32      0.37
   -8    9    3      0.36      0.91
   -7    9    3      0.31      1.03
   -6    9    3     -0.05      0.72
   -5    9    3     -0.39      0.21
   -4    9    3     -0.16     -0.07
   -3    9    3      0.17     -0.14
   -2    9    3      0.11     -0.18
   -1    9    3      0.29      0.06
    0    9    3      0.42      0.51
   -9   10    3     -0.15      0.53
   -8   10    3      0.10      0.80
   -7   10    3      0.48      0.88
   -6   10    3     -0.06      0.32
   -5   10    3     -0.51     -0.24
   -4   10    3     -0.11     -0.04
   -3   10    3      0.24      0.45
   -2   10    3      0.24      0.56
   -1   10    3      0.33      0.56
    0   10    3      0.27      0.53
  -10   11    3     -0.17      0.18
   -9   11    3     -0.39     -0.05
   -8   11    3      0.51      0.12
   -7   11    3      0.59      0.14
   -6   11    3     -0.32     -0.08
   -5   11    3     -0.52      0.11
   -4   11    3     -0.14      0.77
   -3   11    3     -0.10      0.94
   -2   11    3     -0.11      0.47
   -1   11    3      0.29      0.34
    0   11    3      0.59      0.64
  -11   12    3      0.17      0.63
  -10   12    3     -0.36      0.09
   -9   12    3      0.01     -0.01
   -8   12    3      0.48     -0.08
   -7   12    3     -0.04     -0.41
   -6   12    3     -0.44     -0.46
   -5   12    3     -0.26      0.08
   -4   12    3     -0.35      0.45
   -3   12    3     -0.55     -0.11
   -2   12    3     -0.29     -0.65
   -1   12    3      0.27     -0.11
    0   12    3      0.33      0.68
  -12   13    3     -0.08      0.79
  -11   13    3     -0.09      0.52
  -10   13    3     -0.14      0.50
   -9   13    3     -0.01      0.60
   -8   13    3     -0.11      0.02
   -7   13    3     -0.15     -0.62
   -6   13    3      0.08     -0.37
   -5   13    3     -0.10      0.29
   -4   13    3     -0.49      0.09
   -3   13    3     -0.44     -0.77
   -2   13    3     -0.21     -0.88
   -1   13    3     -0.16     -0.17
    0   13    3     -0.46      0.36
  -13   14    3     -0.59      0.25
  -12   14    3     -0.15      0.36
  -11   14    3      0.13      0.41
  -10   14    3     -0.03      0.68
   -9   14    3     -0.20      0.51
   -8   14    3      0.01     -0.13
   -7   14    3      0.44     -0.17
   -6   14    3      0.32      0.51
   -5   14    3     -0.23      0.75
   -4   14    3     -0.24      0.14
   -3   14    3     -0.05     -0.37
   -2   14    3     -0.23     -0.34
   -1   14    3     -0.48     -0.13
    0   14    3     -0.60      0.10
  -14   15    3     -0.47     -0.04
  -13   15    3     -0.26      0.05
  -12   15    3      0.20      0.18
  -11   15    3      0.17      0.16
  -10   15    3     -0.27     -0.02
   -9   15    3     -0.33     -0.22
   -8   15    3      0.22     -0.13
   -7   15    3      0.49      0.27
   -6   15    3     -0.02      0.38
   -5   15    3     -0.29      0.08
   -4   15    3      0.06     -0.02
   -3   15    3      0.08      0.09
   -2   15    3     -0.26     -0.01
   -1   15    3     -0.32     -0.06
  -13   16    3      0.11      0.04
  -12   16    3      0.18      0.09
  -11   16    3     -0.16     -0.32
  -10   16    3     -0.64     -0.56
   -9   16    3     -0.52     -0.21
   -8   16    3      0.15      0.18
   -7   16    3      0.25     -0.03
   -6   16    3     -0.25     -0.53
   -5   16    3     -0.21     -0.45
   -4   16    3      0.13      0.08
   -3   16    3     -0.02      0.21
  -11   17    3     -0.25     -0.28
  -10   17    3     -0.55     -0.08
   -9   17    3     -0.25      0.36
   -8   17    3      0.29      0.33
   -7   17    3      0.14     -0.17
   -6   17    3     -0.23     -0.38
    0    1    2     -0.85      2.24
   -1    2    2      2.48      2.83
    0    2    2     -0.74      2.21
   -2    3    2      0.73      2.02
   -1    3    2      1.59      1.14
    0    3    2     -0.11     -1.95
   -3    4    2     -1.30      2.59
   -2    4    2      0.43      0.69
   -1    4    2      1.06     -1.76
    0    4    2     -0.83     -2.51
   -4    5    2      0.33      1.88
   -3    5    2      0.37      0.62
   -2    5    2      0.68     -1.28
   -1    5    2      0.58     -1.24
    0    5    2     -0.27     -0.37
   -5    6    2      1.20      0.06
   -4    6    2      1.34     -0.13
   -3    6    2      0.27     -1.10
   -2    6    2     -0.08     -0.52
   -1    6    2      0.26      0.12
    0    6    2      0.18      0.14
   -6    7    2      1.23      0.32
   -5    7    2      1.10     -0.09
   -4    7    2     -0.07     -0.26
   -3    7    2     -1.04      0.50
   -2    7    2     -1.14      1.27
   -1    7    2     -0.93      0.49
    0    7    2     -1.32      0.25
   -7    8    2      1.50      1.25
   -6    8    2      0.76      0.83
   -5    8    2     -0.70      0.35
   -4    8    2     -1.31      0.76
   -3    8    2     -1.21      1.47
   -2    8    2     -1.21      0.97
   -1    8    2     -1.20      0.13
    0    8    2     -1.10      0.56
   -8    9    2      0.66      0.25
   -7    9    2      0.47      0.88
   -6    9    2     -0.55      0.15
   -5    9    2     -1.12     -0.40
   -4    9    2     -0.67     -0.08
   -3    9    2     -0.12      0.01
   -2    9    2      0.02     -0.35
   -1    9    2      0.05     -0.03
    0    9    2      0.38      0.61
   -9   10    2     -0.12     -0.84
   -8   10    2     -0.43     -0.08
   -7   10    2     -0.18     -0.01
   -6   10    2      0.08     -0.84
   -5   10    2      0.01     -0.97
   -4   10    2      0.10     -0.44
   -3   10    2      0.35     -0.12
   -2   10    2      0.23      0.16
   -1   10    2      0.03      0.59
    0   10    2      0.12      0.61
  -10   11    2      0.21     -0.22
   -9   11    2     -0.48     -0.41
   -8   11    2     -0.55     -0.05
   -7   11    2      0.45     -0.04
   -6   11    2      0.80     -0.30
   -5   11    2      0.05      0.02
   -4   11    2     -0.45      0.64
   -3   11    2     -0.49      1.02
   -2   11    2     -0.48      0.99
   -1   11    2     -0.29      0.58
    0   11    2     -0.13      0.20
  -11   12    2      0.17      0.28
  -10   12    2      0.31      0.14
   -9   12    2     -0.23     -0.26
   -8   12    2     -0.28      0.11
   -7   12    2      0.28      0.37
   -6   12    2      0.12      0.11
   -5   12    2     -0.65      0.03
   -4   12    2     -0.95      0.35
   -3   12    2     -0.51      0.65
   -2   12    2      0.18      0.40
   -1   12    2      0.53     -0.10
    0   12    2      0.57     -0.33
  -12   13    2     -0.54     -0.06
  -11   13    2      0.01      0.42
  -10   13    2      0.35     -0.07
   -9   13    2     -0.05     -0.40
   -8   13    2     -0.37      0.09
   -7   13    2     -0.22      0.16
   -6   13    2     -0.22     -0.50
   -5   13    2     -0.45     -0.91
   -4   13    2     -0.24     -0.51
   -3   13    2      0.46      0.09
   -2   13    2      0.76      0.04
   -1   13    2      0.58     -0.27
    0   13    2      0.44     -0.47
  -13   14    2     -0.50      0.15
  -12   14    2     -0.51      0.25
  -11   14    2      0.01      0.43
  -10   14    2      0.41      0.03
   -9   14    2      0.11     -0.17
   -8   14    2     -0.24      0.14
   -7   14    2     -0.12      0.14
   -6   14    2      0.09     -0.39
   -5   14    2      0.16     -0.63
   -4   14    2      0.31     -0.03
   -3   14    2      0.34      0.43
   -2   14    2      0.05      0.07
   -1   14    2     -0.14     -0.32
    0   14    2     -0.33     -0.32
  -14   15    2      0.23      0.57
  -13   15    2      0.18      0.16
  -12   15    2      0.05      0.18
  -11   15    2      0.30      0.55
  -10   15    2      0.50      0.33
   -9   15    2      0.18     -0.02
   -8   15    2     -0.11      0.19
   -7   15    2      0.04      0.33
   -6   15    2      0.23      0.00
   -5   15    2      0.12     -0.01
   -4   15    2     -0.08      0.40
   -3   15    2     -0.19      0.28
   -2   15    2     -0.18     -0.23
   -1   15    2     -0.20     -0.27
    0   15    2     -0.37     -0.04
  -15   16    2      0.29      0.29
  -14   16    2      0.61      0.19
  -13   16    2      0.49     -0.34
  -12   16    2      0.21     -0.14
  -11   16    2      0.18      0.30
  -10   16    2      0.08      0.00
   -9   16    2     -0.10     -0.28
   -8   16    2      0.05     -0.13
   -7   16    2      0.30     -0.18
   -6   16    2      0.18     -0.28
   -5   16    2     -0.09     -0.02
   -4   16    2     -0.03      0.14
   -3   16    2      0.17     -0.04
   -2   16    2      0.20     -0.05
   -1   16    2      0.11      0.16
  -13   17    2      0.06     -0.46
  -12   17    2     -0.18     -0.28
  -11   17    2     -0.40     -0.08
  -10   17    2     -0.52     -0.20
   -9   17    2     -0.12     -0.29
   -8   17    2      0.45     -0.51
   -7   17    2      0.48     -0.65
   -6   17    2      0.18     -0.32
   -5   17    2      0.24     -0.03
   -4   17    2      0.46      0.02
  -10   18    2     -0.42      0.03
   -9   18    2      0.18     -0.17
   -8   18    2      0.45     -0.52
    0    1    1     -7.20      3.18
   -1    2    1    -12.83    -10.33
    0    2    1    -10.14      5.95
   -2    3    1     -9.53     -8.72
   -1    3    1     -7.07     -6.81
    0    3    1      1.18      2.81
   -3    4    1     -5.15      1.45
   -2    4    1     -0.95     -4.35
   -1    4    1      4.22     -4.58
    0    4    1      5.99      0.03
   -4    5    1     -2.50      2.55
   -3    5    1      1.64      1.10
   -2    5    1      3.95     -2.58
   -1    5    1      2.80     -3.15
    0    5    1      2.09      0.04
   -5    6    1     -0.56     -0.15
   -4    6    1      2.39      0.36
   -3    6    1      3.67      0.12
   -2    6    1      0.57     -1.75
   -1    6    1     -0.64     -1.56
    0    6    1     -0.27      0.52
   -6    7    1      0.24     -1.28
   -5    7    1      1.79     -0.90
   -4    7    1      3.00     -0.01
   -3    7    1      0.75      0.19
   -2    7    1     -1.49     -0.54
   -1    7    1     -1.14     -0.21
    0    7    1     -1.35      0.35
   -7    8    1      0.41     -1.40
   -6    8    1     -0.13     -0.41
   -5    8    1      0.06      0.76
   -4    8    1     -0.43      0.99
   -3    8    1     -1.85      0.53
   -2    8    1     -1.92      0.16
   -1    8    1     -0.83     -0.03
    0    8    1     -0.51     -0.60
   -8    9    1      0.63     -0.21
   -7    9    1     -0.50     -0.20
   -6    9    1     -1.75      1.38
   -5    9    1     -1.81      1.62
   -4    9    1     -1.87      0.55
   -3    9    1     -1.89      0.05
   -2    9    1     -0.23      0.18
   -1    9    1      1.68     -0.07
    0    9    1      1.23     -0.29
   -9   10    1     -0.12      0.12
   -8   10    1      0.08     -0.18
   -7   10    1     -0.77      0.22
   -6   10    1     -1.07      0.65
   -5   10    1     -0.64     -0.06
   -4   10    1     -0.50     -0.57
   -3   10    1      0.27     -0.02
   -2   10    1      2.02      0.61
   -1   10    1      2.03      0.87
    0   10    1      0.17      1.11
  -10   11    1     -0.83     -0.55
   -9   11    1     -0.59      0.12
   -8   11    1     -0.20     -0.12
   -7   11    1     -0.16     -0.45
   -6   11    1      0.02     -0.62
   -5   11    1      0.26     -0.53
   -4   11    1      0.47      0.06
   -3   11    1      0.85      0.56
   -2   11    1      0.51      0.77
   -1   11    1     -0.83      0.98
    0   11    1     -1.15      0.67
  -11   12    1      0.00     -0.09
  -10   12    1     -0.92      0.27
   -9   12    1     -0.73      0.27
   -8   12    1     -0.22     -0.23
   -7   12    1     -0.15     -0.33
   -6   12    1     -0.20      0.29
   -5   12    1     -0.04      1.07
   -4   12    1      0.12      1.10
   -3   12    1     -0.41      0.37
   -2   12    1     -1.32      0.05
   -1   12    1     -1.34      0.10
    0   12    1     -0.48     -0.51
  -12   13    1      0.93      0.63
  -11   13    1      0.25      0.36
  -10   13    1     -0.50      0.00
   -9   13    1     -0.36     -0.22
   -8   13    1     -0.04     -0.22
   -7   13    1     -0.07      0.41
   -6   13    1     -0.24      1.31
   -5   13    1     -0.04      1.50
   -4   13    1      0.15      0.60
   -3   13    1     -0.18     -0.29
   -2   13    1     -0.19     -0.11
   -1   13    1      0.10      0.22
    0   13    1      0.03     -0.22
  -13   14    1      0.63      0.36
  -12   14    1      1.06      0.26
  -11   14    1      0.49     -0.24
  -10   14    1     -0.13     -0.20
   -9   14    1     -0.09     -0.07
   -8   14    1      0.22      0.00
   -7   14    1      0.16      0.40
   -6   14    1     -0.03      0.68
   -5   14    1      0.31      0.29
   -4   14    1      0.70     -0.39
   -3   14    1      0.78     -0.44
   -2   14    1      0.62      0.23
   -1   14    1     -0.04      0.52
    0   14    1     -0.35      0.14
  -14   15    1      0.01      0.01
  -13   15    1      0.47     -0.16
  -12   15    1      0.78     -0.52
  -11   15    1      0.21     -0.11
  -10   15    1     -0.23      0.52
   -9   15    1     -0.01      0.27
   -8   15    1      0.30     -0.15
   -7   15    1      0.20     -0.06
   -6   15    1      0.08     -0.10
   -5   15    1      0.32     -0.43
   -4   15    1      0.58     -0.58
   -3   15    1      0.39     -0.35
   -2   15    1     -0.37     -0.02
   -1   15    1     -0.91     -0.05
    0   15    1     -0.37     -0.28
  -15   16    1     -0.09      0.15
  -14   16    1     -0.26     -0.24
  -13   16    1      0.11     -0.71
  -12   16    1      0.05     -0.47
  -11   16    1     -0.38      0.35
  -10   16    1     -0.25      0.43
   -9   16    1      0.19     -0.29
   -8   16    1      0.41     -0.37
   -7   16    1      0.27      0.08
   -6   16    1     -0.02     -0.01
   -5   16    1     -0.01     -0.30
   -4   16    1      0.05     -0.31
   -3   16    1     -0.35     -0.27
   -2   16    1     -0.81     -0.29
   -1   16    1     -0.58     -0.34
    0   16    1      0.02     -0.29
  -14   17    1     -0.33     -0.39
  -13   17    1     -0.33     -0.36
  -12   17    1     -0.63      0.02
  -11   17    1     -0.61      0.19
  -10   17    1     -0.12     -0.24
   -9   17    1      0.19     -0.49
   -8   17    1      0.24      0.11
   -7   17    1      0.01      0.45
   -6   17    1     -0.23     -0.04
   -5   17    1     -0.06     -0.30
   -4   17    1      0.03     -0.17
   -3   17    1     -0.14     -0.15
  -12   18    1     -0.63      0.19
  -11   18    1     -0.41      0.01
  -10   18    1     -0.13     -0.17
   -9   18    1     -0.13      0.08
   -8   18    1     -0.12      0.55
   -7   18    1     -0.18      0.24
   -6   18    1     -0.08     -0.38
    0    1    0    119.45      0.04
   -1    2    0     26.53      1.75
    0    2    0      2.08      1.65
   -2    3    0    -28.25      0.58
   -1    3    0    -26.51      2.06
    0    3    0    -24.17      1.87
   -3    4    0    -15.49     -2.13
   -2    4    0    -18.62     -2.74
   -1    4    0     -9.11     -0.77
    0    4    0     -1.41      0.53
   -4    5    0     -0.07     -0.99
   -3    5    0     -2.23     -3.12
   -2    5    0      3.43     -3.93
   -1    5    0      7.89     -1.76
    0    5    0      3.75      0.28
   -5    6    0     -0.12      0.77
   -4    6    0      0.65      0.50
   -3    6    0      3.95     -1.43
   -2    6    0      7.22     -1.59
   -1    6    0      4.17      0.08
    0    6    0     -0.22      0.25
   -6    7    0      0.07      0.09
   -5    7    0      0.00      0.91
   -4    7    0      0.33      0.64
   -3    7    0      2.02      0.03
   -2    7    0      2.09      0.52
   -1    7    0     -0.15      0.58
    0    7    0     -0.04     -0.42
   -7    8    0      1.06     -0.29
   -6    8    0      0.92     -0.33
   -5    8    0     -0.43     -0.14
   -4    8    0     -1.13      0.00
   -3    8    0     -0.71      0.19
   -2    8    0     -0.75      0.25
   -1    8    0     -0.99     -0.05
    0    8    0     -0.21     -0.12
   -8    9    0      0.50      0.26
   -7    9    0      0.94     -0.05
   -6    9    0      0.18     -0.41
   -5    9    0     -0.73     -0.26
   -4    9    0     -1.03     -0.05
   -3    9    0     -0.64     -0.22
   -2    9    0     -0.50     -0.20
   -1    9    0     -0.82      0.27
    0    9    0     -0.55      0.43
   -9   10    0      0.09      0.15
   -8   10    0      0.58      0.31
   -7   10    0      0.54      0.07
   -6   10    0      0.09     -0.01
   -5   10    0     -0.08      0.21
   -4   10    0      0.28      0.00
   -3   10    0      0.78     -0.31
   -2   10    0      0.48      0.00
   -1   10    0     -0.02      0.26
    0   10    0      0.32     -0.16
  -10   11    0      0.21     -0.25
   -9   11    0      0.11     -0.07
   -8   11    0      0.52      0.06
   -7   11    0      0.37      0.02
   -6   11    0     -0.14      0.16
   -5   11    0      0.05      0.23
   -4   11    0      0.66     -0.01
   -3   11    0      0.71     -0.08
   -2   11    0      0.39     -0.03
   -1   11    0      0.46     -0.23
    0   11    0      0.66     -0.26
  -11   12    0      0.58     -0.01
  -10   12    0     -0.11     -0.14
   -9   12    0     -0.25     -0.06
   -8   12    0      0.31     -0.04
   -7   12    0      0.24     -0.09
   -6   12    0     -0.04     -0.04
   -5   12    0      0.19      0.06
   -4   12    0      0.19      0.12
   -3   12    0      0.03      0.07
   -2   12    0      0.17     -0.05
   -1   12    0      0.25      0.07
    0   12    0      0.35      0.41
  -12   13    0      0.64      0.24
  -11   13    0      0.46      0.14
  -10   13    0     -0.29      0.07
   -9   13    0     -0.23      0.08
   -8   13    0      0.64     -0.03
   -7   13    0      0.85     -0.19
   -6   13    0      0.51     -0.17
   -5   13    0      0.15      0.03
   -4   13    0     -0.05      0.06
   -3   13    0      0.07     -0.06
   -2   13    0     -0.01      0.04
   -1   13    0      0.06      0.18
    0   13    0      0.49      0.06
  -13   14    0     -0.04     -0.01
  -12   14    0      0.22      0.03
  -11   14    0      0.36      0.03
  -10   14    0     -0.04      0.07
   -9   14    0      0.28      0.07
   -8   14    0      0.97      0.00
   -7   14    0      0.65     -0.05
   -6   14    0     -0.12      0.00
   -5   14    0     -0.35     -0.02
   -4   14    0     -0.11     -0.14
   -3   14    0     -0.15     -0.06
   -2   14    0     -0.27     -0.05
   -1   14    0      0.20     -0.34
    0   14    0      0.16     -0.30
  -14   15    0     -0.52     -0.05
  -13   15    0     -0.62     -0.13
  -12   15    0     -0.12     -0.12
  -11   15    0      0.26     -0.06
  -10   15    0      0.20     -0.04
   -9   15    0      0.41     -0.02
   -8   15    0      0.39      0.10
   -7   15    0     -0.21      0.17
   -6   15    0     -0.45      0.08
   -5   15    0     -0.18     -0.04
   -4   15    0     -0.06      0.09
   -3   15    0     -0.19      0.17
   -2   15    0     -0.14     -0.16
   -1   15    0     -0.15     -0.17
    0   15    0     -0.54      0.42
  -15   16    0     -0.14      0.11
  -14   16    0     -0.08      0.01
  -13   16    0     -0.19     -0.03
  -12   16    0      0.03      0.00
  -11   16    0      0.32      0.00
  -10   16    0      0.28     -0.08
   -9   16    0      0.19     -0.05
   -8   16    0      0.10      0.09
   -7   16    0      0.13      0.02
   -6   16    0      0.31     -0.11
   -5   16    0      0.30      0.06
   -4   16    0      0.30      0.25
   -3   16    0      0.30      0.01
   -2   16    0     -0.06     -0.13
   -1   16    0     -0.36      0.27
    0   16    0     -0.15      0.50
  -15   17    0      0.45     -0.01
  -14   17    0      0.59      0.05
  -13   17    0      0.21      0.06
  -12   17    0      0.29      0.07
  -11   17    0      0.47      0.05
  -10   17    0      0.25     -0.04
   -9   17    0      0.20     -0.04
   -8   17    0      0.39     -0.05
   -7   17    0      0.50     -0.20
   -6   17    0      0.32     -0.16
   -5   17    0      0.17      0.05
   -4   17    0      0.46     -0.06
   -3   17    0      0.40     -0.23
   -2   17    0     -0.08     -0.07
  -13   18    0      0.00     -0.02
  -12   18    0      0.29      0.01
  -11   18    0      0.31      0.04
  -10   18    0      0.18      0.00
   -9   18    0      0.27      0.01
   -8   18    0      0.26     -0.02
   -7   18    0      0.10     -0.08
   -6   18    0     -0.14      0.00
   -5   18    0     -0.07     -0.01
  -15   17    1     -0.21     -0.04
   -2   17    1     -0.11     -0.14
  -13   18    1     -0.40      0.19
   -5   18    1      0.16     -0.32
  -14   17    2      0.30     -0.11
   -3   17    2      0.33      0.15
  -11   18    2     -0.53     -0.01
   -7   18    2      0.20     -0.36
    0    0    3      1.64     -4.26
    0   15    3     -0.22      0.12
    0   14    4      0.01      0.08
  -10   16    4     -0.40      0.21
   -9   16    4     -0.26      0.41
   -7   16    4      0.14     -0.19
   -6   16    4     -0.02     -0.28
  -10   14    5     -0.04     -0.17
   -4   14    5     -0.05      0.26
    0    7    7      0.63      0.27
   -5    8    7      0.20      0.03
   -4    8    7      0.14     -0.05
   -3    8    7     -0.13      0.05
    0    0    0      0.00      0.00
# SQUEEZE RESULTS (Version = 160117)
# Note: Data are Listed for all Voids in the P1 Unit Cell
# i.e. Centre of Gravity, Solvent Accessible Volume,
# Recovered number of Electrons in the Void and
# Details about the Squeezed Material
loop_
  _platon_squeeze_void_nr
  _platon_squeeze_void_average_x
  _platon_squeeze_void_average_y
  _platon_squeeze_void_average_z
  _platon_squeeze_void_volume
  _platon_squeeze_void_count_electrons
  _platon_squeeze_void_content
   1  0.000  0.000 -0.040       424       197 ' '
# Missing Reflections Below sin(th)/lambda = 0.25
loop_
  _platon_missing_refln_index_h
  _platon_missing_refln_index_k
  _platon_missing_refln_index_l
  _platon_missing_refln_theta
    0    0    3     9.650
_platon_squeeze_void_probe_radius                  1.20
_platon_squeeze_details
)
TITL c         P 62         R = 0.04
CELL   15.4650   15.4650    6.3597     90.00     90.00    120.00
SPGR P62
# Solvent Accessible Volume =       424
# Electrons Found in S.A.V. =       195
# Note: Atoms in Void as Cxxx and Qxxx all others
C101 0.228 0.090 0.629 !       1.34 eA-3
C102 0.834 0.045 0.268 !       1.20 eA-3
C103 0.204 0.061 0.815 !       0.98 eA-3
C104 0.926 0.096 0.107 !       0.97 eA-3
C105 0.842 0.839 0.792 !       0.96 eA-3
C106 0.213 0.034 0.398 !       0.92 eA-3
C107 0.905 0.906-0.021 !       0.88 eA-3
C108 0.109 0.189 0.248 !       0.88 eA-3
C109 0.871 0.941 0.792 !       0.88 eA-3
C110 0.894 0.983 0.728 !       0.87 eA-3
C111 0.998 1.001 0.468 !       0.81 eA-3
C112 0.866 0.949 0.974 !       0.81 eA-3
C113 0.878 0.872 0.236 !       0.80 eA-3
C114 0.031 0.828 0.680 !       0.80 eA-3
C115 0.974 0.136 0.734 !       0.79 eA-3
C116 0.848 0.823 0.265 !       0.79 eA-3
C117 0.923 0.975 0.187 !       0.76 eA-3
C118 0.882 0.940 0.342 !       0.74 eA-3
Q119 0.130 0.265 0.179 !       0.59 eA-3
)
;
_shelx_fab_checksum              57868
_olex2_submission_special_instructions 'No special instructions were received'
loop_
_space_group_symop_operation_xyz
'x, y, z'
'x-y, x, z+1/3'
'-y, x-y, z+2/3'
'-x, -y, z'
'-x+y, -x, z+1/3'
'y, -x+y, z+2/3'
loop_
_atom_site_label
_atom_site_type_symbol
_atom_site_fract_x
_atom_site_fract_y
_atom_site_fract_z
_atom_site_U_iso_or_equiv
_atom_site_adp_type
_atom_site_occupancy
_atom_site_site_symmetry_order
_atom_site_calc_flag
_atom_site_refinement_flags_posn
_atom_site_refinement_flags_adp
_atom_site_refinement_flags_occupancy
Zn1 Zn 0.500000 0.500000 0.48064(9) 0.03543(13) Uani 1 2 d S T P
O1 O 0.29511(18) 0.4267(2) 0.5575(4) 0.0705(8) Uani 1 1 d . . .
O2 O 0.39501(13) 0.48155(15) 0.2829(3) 0.0453(5) Uani 1 1 d . . .
N1 N 0.09808(14) 0.48235(16) -0.0041(4) 0.0391(5) Uani 1 1 d . . .
N2 N 0.10019(19) 0.3736(2) 0.4964(5) 0.0628(7) Uani 1 1 d . . .
H2B H 0.038539 0.350180 0.529682 0.075 Uiso 1 1 calc R . .
H2A H 0.139387 0.365666 0.580030 0.075 Uiso 1 1 calc R . .
C1 C 0.07109(18) 0.4352(2) 0.1782(5) 0.0423(6) Uani 1 1 d . . .
H1 H 0.004940 0.408564 0.219855 0.076(12) Uiso 1 1 calc R . .
C2 C 0.13560(18) 0.4230(2) 0.3120(5) 0.0408(5) Uani 1 1 d . . .
C3 C 0.23483(19) 0.4629(2) 0.2467(4) 0.0355(6) Uani 1 1 d . . .
C4 C 0.26181(19) 0.5117(2) 0.0551(5) 0.0432(7) Uani 1 1 d . . .
H4 H 0.327177 0.538491 0.007921 0.060(9) Uiso 1 1 calc R . .
C5 C 0.19342(19) 0.5215(2) -0.0671(5) 0.0436(6) Uani 1 1 d . . .
H5 H 0.213471 0.555414 -0.194466 0.067(10) Uiso 1 1 calc R . .
C6 C 0.3118(2) 0.4541(2) 0.3747(5) 0.0419(7) Uani 1 1 d . . .
loop_
_atom_site_aniso_label
_atom_site_aniso_U_11
_atom_site_aniso_U_22
_atom_site_aniso_U_33
_atom_site_aniso_U_23
_atom_site_aniso_U_13
_atom_site_aniso_U_12
Zn1 0.0402(2) 0.0402(2) 0.0387(2) 0.000 0.000 0.0297(2)
O1 0.0534(13) 0.114(2) 0.0581(15) 0.0257(14) 0.0032(11) 0.0526(15)
O2 0.0378(9) 0.0635(12) 0.0489(11) -0.0086(10) -0.0052(9) 0.0361(9)
N1 0.0255(10) 0.0487(12) 0.0406(12) -0.0027(11) -0.0019(10) 0.0168(9)
N2 0.0420(13) 0.092(2) 0.0537(14) 0.0246(16) 0.0117(13) 0.0333(13)
C1 0.0248(11) 0.0540(16) 0.0473(16) 0.0010(13) 0.0026(11) 0.0190(11)
C2 0.0359(13) 0.0487(14) 0.0391(13) 0.0007(13) 0.0011(12) 0.0221(11)
C3 0.0292(12) 0.0411(13) 0.0399(14) -0.0028(11) -0.0019(10) 0.0205(11)
C4 0.0271(12) 0.0549(16) 0.0516(16) 0.0057(13) 0.0039(11) 0.0235(12)
C5 0.0298(13) 0.0540(16) 0.0452(16) 0.0078(13) 0.0044(11) 0.0196(12)
C6 0.0380(14) 0.0474(15) 0.0494(18) -0.0032(12) -0.0031(12) 0.0282(12)
loop_
_atom_type_symbol
_atom_type_description
_atom_type_scat_dispersion_real
_atom_type_scat_dispersion_imag
_atom_type_scat_source
C C 0.0033 0.0016 'International Tables Vol C Tables 4.2.6.8 and 6.1.1.4'
H H 0.0000 0.0000 'International Tables Vol C Tables 4.2.6.8 and 6.1.1.4'
N N 0.0061 0.0033 'International Tables Vol C Tables 4.2.6.8 and 6.1.1.4'
O O 0.0106 0.0060 'International Tables Vol C Tables 4.2.6.8 and 6.1.1.4'
Zn Zn 0.2839 1.4301 'International Tables Vol C Tables 4.2.6.8 and 6.1.1.4'
loop_
_geom_angle_atom_site_label_1
_geom_angle_atom_site_label_2
_geom_angle_atom_site_label_3
_geom_angle
_geom_angle_site_symmetry_1
_geom_angle_site_symmetry_3
O2 Zn1 O2 100.10(12) 4_665 .
O2 Zn1 N1 120.06(9) . 6
O2 Zn1 N1 103.33(8) 4_665 6
O2 Zn1 N1 103.33(8) . 3_665
O2 Zn1 N1 120.06(9) 4_665 3_665
N1 Zn1 N1 110.56(13) 3_665 6
C6 O2 Zn1 112.28(19) . .
C1 N1 Zn1 121.52(16) . 2_554
C1 N1 C5 118.9(2) . .
C5 N1 Zn1 119.6(2) . 2_554
H2B N2 H2A 120.0 . .
C2 N2 H2B 120.0 . .
C2 N2 H2A 120.0 . .
N1 C1 H1 118.0 . .
N1 C1 C2 124.1(2) . .
C2 C1 H1 118.0 . .
N2 C2 C1 119.3(2) . .
N2 C2 C3 123.3(3) . .
C1 C2 C3 117.4(3) . .
C2 C3 C6 122.8(3) . .
C4 C3 C2 117.8(2) . .
C4 C3 C6 119.4(2) . .
C3 C4 H4 119.4 . .
C5 C4 C3 121.1(2) . .
C5 C4 H4 119.4 . .
N1 C5 C4 120.7(3) . .
N1 C5 H5 119.7 . .
C4 C5 H5 119.7 . .
O1 C6 O2 123.6(3) . .
O1 C6 C3 120.6(3) . .
O2 C6 C3 115.7(3) . .
loop_
_geom_bond_atom_site_label_1
_geom_bond_atom_site_label_2
_geom_bond_distance
_geom_bond_site_symmetry_2
Zn1 O2 1.9587(19) 4_665
Zn1 O2 1.9587(19) .
Zn1 N1 2.032(2) 3_665
Zn1 N1 2.032(2) 6
O1 C6 1.220(3) .
O2 C6 1.278(3) .
N1 C1 1.321(4) .
N1 C5 1.345(3) .
N2 H2B 0.8600 .
N2 H2A 0.8600 .
N2 C2 1.357(4) .
C1 H1 0.9300 .
C1 C2 1.394(4) .
C2 C3 1.401(3) .
C3 C4 1.383(4) .
C3 C6 1.503(4) .
C4 H4 0.9300 .
C4 C5 1.380(4) .
C5 H5 0.9300 .
loop_
_geom_torsion_atom_site_label_1
_geom_torsion_atom_site_label_2
_geom_torsion_atom_site_label_3
_geom_torsion_atom_site_label_4
_geom_torsion
_geom_torsion_site_symmetry_1
Zn1 O2 C6 O1 -11.3(4) .
Zn1 O2 C6 C3 165.27(18) .
Zn1 N1 C1 C2 -178.3(2) 2_554
Zn1 N1 C5 C4 179.1(2) 2_554
N1 C1 C2 N2 179.8(3) .
N1 C1 C2 C3 -0.5(4) .
N2 C2 C3 C4 -180.0(3) .
N2 C2 C3 C6 0.4(4) .
C1 N1 C5 C4 0.7(4) .
C1 C2 C3 C4 0.3(4) .
C1 C2 C3 C6 -179.4(2) .
C2 C3 C4 C5 0.4(4) .
C2 C3 C6 O1 -12.7(4) .
C2 C3 C6 O2 170.6(3) .
C3 C4 C5 N1 -0.9(5) .
C4 C3 C6 O1 167.7(3) .
C4 C3 C6 O2 -9.0(4) .
C5 N1 C1 C2 0.0(4) .
C6 C3 C4 C5 -180.0(3) .
loop_
_twin_individual_id
_twin_individual_mass_fraction_refined
1 0.052(18)
2 0.948(18)
